LAMMPS Description

742 atoms
742 ellipsoids
271 bonds
551 angles

23 atom types
1 bond types
3 angle types

-50 50 xlo xhi
-50 50 ylo yhi
-50 50 zlo zhi
Masses

1 1.0
2 1.0
3 1.0
4 1.0
5 1.0
6 1.0
7 1.0
8 1.0
9 1.0
10 1.0
11 1.0
12 1.0
13 1.0
14 1.0
15 1.0
16 1.0
17 1.0
18 1.0
19 1.0
20 1.0
21 1.0
22 1.0
23 1.0

Atoms

 1 1 0 0 0 0 1 1
 2 1 -0.379105 0.296426 -0.876591 0 1 1
 3 1 -0.190339 -0.304516 -1.65327 0 1 1
 4 1 -0.101664 -0.0452436 -2.615 0 1 1
 5 1 -0.0023484 -0.908528 -2.12015 0 1 1
 6 1 0.645464 1.39647 -1.30253 0 1 1
 7 1 0.6567 0.835472 -1.6948 0 1 1
 8 1 0.691572 0.320872 -2.12128 0 1 1
 9 1 0.794092 -0.344928 -2.17722 0 1 1
 10 1 0.857412 -1.01845 -2.0965 0 1 1
 11 1 0.862372 -1.59621 -1.74882 0 1 1
 12 1 0.831132 -2.02057 -1.23361 0 1 1
 13 1 0.773412 -2.05006 -0.559588 0 1 1
 14 1 0.719612 -1.8913 0.0956124 0 1 1
 15 2 0.713812 -1.44724 0.592132 1 1 1
 16 2 0.718612 -0.931248 1.04941 1 1 1
 17 2 0.863052 -0.294288 1.11797 1 1 1
 18 2 0.922372 0.352872 0.976132 1 1 1
 19 2 1.08705 0.828832 0.533572 1 1 1
 20 5 0.645464 1.39647 -1.30253 1 1 1
 21 6 0.6567 0.835472 -1.6948 1 1 1
 22 7 0.691572 0.320872 -2.12128 1 1 1
 23 8 0.794092 -0.344928 -2.17722 1 1 1
 24 9 0.857412 -1.01845 -2.0965 1 1 1
 25 10 0.862372 -1.59621 -1.74882 1 1 1
 26 11 0.831132 -2.02057 -1.23361 1 1 1
 27 12 0.773412 -2.05006 -0.559588 1 1 1
 28 13 0.719612 -1.8913 0.0956124 1 1 1
 29 3 0.997652 0.0914724 -1.12015 1 1 1
 30 3 1.04397 -0.153688 -1.22801 1 1 1
 31 3 1.10409 -0.511208 -1.24113 1 1 1
 32 3 1.14301 -0.784488 -1.16715 1 1 1
 33 3 1.15425 -0.993328 -1.00631 1 1 1
 34 3 1.14105 -1.15753 -0.820828 1 1 1
 35 3 1.53233 -1.21289 -0.551068 1 1 1
 36 3 1.51485 -1.14125 -0.316668 1 1 1
 37 3 1.51877 -1.01685 -0.0875076 1 1 1
 38 3 1.55517 -0.808408 0.112132 1 1 1
 39 3 1.60853 -0.474488 0.254932 1 1 1
 40 3 1.64821 -0.206288 0.261572 1 1 1
 41 2 1.30673 1.16159 -0.157708 1 1 1
 42 4 0.922452 0.0420324 -0.422788 1 1 1
 43 4 1.72201 0.0487124 -0.396908 1 1 1
 44 4 0.916932 -0.528368 -0.131428 1 1 1
 45 4 1.71649 -0.521688 -0.105548 1 1 1
 46 4 0.941292 -0.347448 -0.930988 1 1 1
 47 4 1.74085 -0.340768 -0.905108 1 1 1
 48 23 1.32889 -0.603488 -0.502548 1 1 1
 49 22 1.97093 -1.47728 -1.68555 1 1 1
 50 21 1.93073 -1.88922 -1.17062 1 1 1
 51 20 1.86897 -2.16307 -0.551508 1 1 1
 52 19 1.82705 -1.99759 0.0946524 1 1 1
 53 18 1.81533 -1.61901 0.653732 1 1 1
 54 17 1.86389 -1.04949 1.03221 1 1 1
 55 16 1.95233 -0.413888 1.26529 1 1 1
 56 15 1.97377 0.228152 1.10137 1 1 1
 57 14 1.91045 0.902872 1.01269 1 1 1
 58 2 1.53157 1.15371 -0.919828 1 1 1
 59 2 1.70161 0.924832 -1.5288 1 1 1
 60 2 1.77341 0.396912 -1.92728 1 1 1
 61 2 1.93137 -0.206688 -2.14509 1 1 1
 62 2 1.94941 -0.856528 -1.9487 1 1 1
 63 1 1.97093 -1.47728 -1.68555 0 1 1
 64 1 1.93073 -1.88922 -1.17062 0 1 1
 65 1 1.86897 -2.16307 -0.551508 0 1 1
 66 1 1.82705 -1.99759 0.0946524 0 1 1
 67 1 1.81533 -1.61901 0.653732 0 1 1
 68 1 1.86389 -1.04949 1.03221 0 1 1
 69 1 1.95233 -0.413888 1.26529 0 1 1
 70 1 1.97377 0.228152 1.10137 0 1 1
 71 1 1.91045 0.902872 1.01269 0 1 1
 72 1 1.18804 0.648056 1.65549 0 1 1
 73 1 0.500074 -0.074213 1.72644 0 1 1
 74 1 -0.407823 -0.150839 2.13857 0 1 1
 75 1 -0.278564 -0.225979 1.14981 0 1 1
 76 1 -0.464335 -1.11731 0.736257 0 1 1
 77 1 -0.801073 -1.38524 1.63893 0 1 1
 78 1 -0.798786 -1.33411 2.63762 0 1 1
 79 1 -0.659266 -1.72802 3.54611 0 1 1
 80 1 -0.0114536 0.576977 4.36373 0 1 1
 81 1 -0.000217591 0.015977 3.97146 0 1 1
 82 1 0.0346544 -0.498623 3.54499 0 1 1
 83 1 0.137174 -1.16442 3.48905 0 1 1
 84 1 0.200494 -1.83794 3.56976 0 1 1
 85 1 0.205454 -2.4157 3.91744 0 1 1
 86 1 0.174214 -2.84006 4.43265 0 1 1
 87 1 0.116494 -2.86955 5.10667 0 1 1
 88 1 0.0626944 -2.71079 5.76187 0 1 1
 89 2 0.0568944 -2.26673 6.25839 2 1 1
 90 2 0.0616944 -1.75074 6.71567 2 1 1
 91 2 0.206134 -1.11378 6.78423 2 1 1
 92 2 0.265454 -0.466623 6.64239 2 1 1
 93 2 0.430134 0.00933702 6.19983 2 1 1
 94 5 -0.0114536 0.576977 4.36373 2 1 1
 95 6 -0.000217591 0.015977 3.97146 2 1 1
 96 7 0.0346544 -0.498623 3.54499 2 1 1
 97 8 0.137174 -1.16442 3.48905 2 1 1
 98 9 0.200494 -1.83794 3.56976 2 1 1
 99 10 0.205454 -2.4157 3.91744 2 1 1
 100 11 0.174214 -2.84006 4.43265 2 1 1
 101 12 0.116494 -2.86955 5.10667 2 1 1
 102 13 0.0626944 -2.71079 5.76187 2 1 1
 103 3 0.340734 -0.728023 4.54611 2 1 1
 104 3 0.387054 -0.973183 4.43825 2 1 1
 105 3 0.447174 -1.3307 4.42513 2 1 1
 106 3 0.486094 -1.60398 4.49911 2 1 1
 107 3 0.497334 -1.81282 4.65995 2 1 1
 108 3 0.484134 -1.97702 4.84543 2 1 1
 109 3 0.875414 -2.03238 5.11519 2 1 1
 110 3 0.857934 -1.96074 5.34959 2 1 1
 111 3 0.861854 -1.83634 5.57875 2 1 1
 112 3 0.898254 -1.6279 5.77839 2 1 1
 113 3 0.951614 -1.29398 5.92119 2 1 1
 114 3 0.991294 -1.02578 5.92783 2 1 1
 115 2 0.649814 0.342097 5.50855 2 1 1
 116 4 0.265534 -0.777463 5.24347 2 1 1
 117 4 1.06509 -0.770783 5.26935 2 1 1
 118 4 0.260014 -1.34786 5.53483 2 1 1
 119 4 1.05957 -1.34118 5.56071 2 1 1
 120 4 0.284374 -1.16694 4.73527 2 1 1
 121 4 1.08393 -1.16026 4.76115 2 1 1
 122 23 0.671974 -1.42298 5.16371 2 1 1
 123 22 1.31401 -2.29677 3.98071 2 1 1
 124 21 1.27381 -2.70871 4.49564 2 1 1
 125 20 1.21205 -2.98256 5.11475 2 1 1
 126 19 1.17013 -2.81708 5.76091 2 1 1
 127 18 1.15841 -2.4385 6.31999 2 1 1
 128 17 1.20697 -1.86898 6.69847 2 1 1
 129 16 1.29541 -1.23338 6.93155 2 1 1
 130 15 1.31685 -0.591343 6.76763 2 1 1
 131 14 1.25353 0.083377 6.67895 2 1 1
 132 2 0.874654 0.334217 4.74643 2 1 1
 133 2 1.04469 0.105337 4.13746 2 1 1
 134 2 1.11649 -0.422583 3.73898 2 1 1
 135 2 1.27445 -1.02618 3.52117 2 1 1
 136 2 1.29249 -1.67602 3.71757 2 1 1
 137 1 1.31401 -2.29677 3.98071 0 1 1
 138 1 1.27381 -2.70871 4.49564 0 1 1
 139 1 1.21205 -2.98256 5.11475 0 1 1
 140 1 1.17013 -2.81708 5.76091 0 1 1
 141 1 1.15841 -2.4385 6.31999 0 1 1
 142 1 1.20697 -1.86898 6.69847 0 1 1
 143 1 1.29541 -1.23338 6.93155 0 1 1
 144 1 1.31685 -0.591343 6.76763 0 1 1
 145 1 1.25353 0.083377 6.67895 0 1 1
 146 1 0.869563 0.358882 7.56024 0 1 1
 147 1 1.17699 0.609355 8.47826 0 1 1
 148 1 1.17766 0.612666 7.47826 0 1 1
 149 1 1.70833 -0.233938 7.43764 0 1 1
 150 1 1.44079 0.66514 7.09111 0 1 1
 151 1 0.543269 0.527104 6.67231 0 1 1
 152 1 1.52847 0.356912 6.69246 0 1 1
 153 1 1.63484 -0.430917 7.2991 0 1 1
 154 1 2.28265 1.87408 8.11672 0 1 1
 155 1 2.29388 1.31308 7.72445 0 1 1
 156 1 2.32876 0.798483 7.29798 0 1 1
 157 1 2.43128 0.132683 7.24204 0 1 1
 158 1 2.4946 -0.540837 7.32275 0 1 1
 159 1 2.49956 -1.1186 7.67043 0 1 1
 160 1 2.46832 -1.54296 8.18564 0 1 1
 161 1 2.4106 -1.57245 8.85966 0 1 1
 162 1 2.3568 -1.41369 9.51486 0 1 1
 163 2 2.351 -0.969629 10.0114 3 1 1
 164 2 2.3558 -0.453637 10.4687 3 1 1
 165 2 2.50024 0.183323 10.5372 3 1 1
 166 2 2.55956 0.830483 10.3954 3 1 1
 167 2 2.72424 1.30644 9.95282 3 1 1
 168 5 2.28265 1.87408 8.11672 3 1 1
 169 6 2.29388 1.31308 7.72445 3 1 1
 170 7 2.32876 0.798483 7.29798 3 1 1
 171 8 2.43128 0.132683 7.24204 3 1 1
 172 9 2.4946 -0.540837 7.32275 3 1 1
 173 10 2.49956 -1.1186 7.67043 3 1 1
 174 11 2.46832 -1.54296 8.18564 3 1 1
 175 12 2.4106 -1.57245 8.85966 3 1 1
 176 13 2.3568 -1.41369 9.51486 3 1 1
 177 3 2.63484 0.569083 8.2991 3 1 1
 178 3 2.68116 0.323923 8.19124 3 1 1
 179 3 2.74128 -0.033597 8.17812 3 1 1
 180 3 2.7802 -0.306877 8.2521 3 1 1
 181 3 2.79144 -0.515717 8.41294 3 1 1
 182 3 2.77824 -0.679917 8.59842 3 1 1
 183 3 3.16952 -0.735277 8.86818 3 1 1
 184 3 3.15204 -0.663637 9.10258 3 1 1
 185 3 3.15596 -0.539237 9.33174 3 1 1
 186 3 3.19236 -0.330797 9.53138 3 1 1
 187 3 3.24572 0.003123 9.67418 3 1 1
 188 3 3.2854 0.271323 9.68082 3 1 1
 189 2 2.94392 1.6392 9.26154 3 1 1
 190 4 2.55964 0.519643 8.99646 3 1 1
 191 4 3.3592 0.526323 9.02234 3 1 1
 192 4 2.55412 -0.050757 9.28782 3 1 1
 193 4 3.35368 -0.044077 9.3137 3 1 1
 194 4 2.57848 0.130163 8.48826 3 1 1
 195 4 3.37804 0.136843 8.51414 3 1 1
 196 23 2.96608 -0.125877 8.9167 3 1 1
 197 22 3.60812 -0.999669 7.7337 3 1 1
 198 21 3.56792 -1.41161 8.24863 3 1 1
 199 20 3.50616 -1.68546 8.86774 3 1 1
 200 19 3.46424 -1.51998 9.5139 3 1 1
 201 18 3.45252 -1.1414 10.073 3 1 1
 202 17 3.50108 -0.571877 10.4515 3 1 1
 203 16 3.58952 0.063723 10.6845 3 1 1
 204 15 3.61096 0.705763 10.5206 3 1 1
 205 14 3.54764 1.38048 10.4319 3 1 1
 206 2 3.16876 1.63132 8.49942 3 1 1
 207 2 3.3388 1.40244 7.89045 3 1 1
 208 2 3.4106 0.874523 7.49197 3 1 1
 209 2 3.56856 0.270923 7.27416 3 1 1
 210 2 3.5866 -0.378917 7.47056 3 1 1
 211 1 3.60812 -0.999669 7.7337 0 1 1
 212 1 3.56792 -1.41161 8.24863 0 1 1
 213 1 3.50616 -1.68546 8.86774 0 1 1
 214 1 3.46424 -1.51998 9.5139 0 1 1
 215 1 3.45252 -1.1414 10.073 0 1 1
 216 1 3.50108 -0.571877 10.4515 0 1 1
 217 1 3.58952 0.063723 10.6845 0 1 1
 218 1 3.61096 0.705763 10.5206 0 1 1
 219 1 3.54764 1.38048 10.4319 0 1 1
 220 1 3.67199 0.391801 10.348 0 1 1
 221 1 4.41076 -0.207495 10.6564 0 1 1
 222 1 3.94433 0.414069 11.2857 0 1 1
 223 1 4.44037 0.137403 10.4627 0 1 1
 224 1 4.64684 0.0693511 11.4388 0 1 1
 225 1 5.50133 0.582376 11.3572 0 1 1
 226 1 5.20685 0.0968779 12.1803 0 1 1
 227 1 5.01006 0.371742 11.2392 0 1 1
 228 1 5.65787 2.67674 12.0568 0 1 1
 229 1 5.66911 2.11574 11.6646 0 1 1
 230 1 5.70398 1.60114 11.2381 0 1 1
 231 1 5.8065 0.935342 11.1821 0 1 1
 232 1 5.86982 0.261822 11.2629 0 1 1
 233 1 5.87478 -0.315938 11.6105 0 1 1
 234 1 5.84354 -0.740298 12.1258 0 1 1
 235 1 5.78582 -0.769788 12.7998 0 1 1
 236 1 5.73202 -0.611026 13.455 0 1 1
 237 2 5.72622 -0.16697 13.9515 4 1 1
 238 2 5.73102 0.349022 14.4088 4 1 1
 239 2 5.87546 0.985982 14.4773 4 1 1
 240 2 5.93478 1.63314 14.3355 4 1 1
 241 2 6.09946 2.1091 13.8929 4 1 1
 242 5 5.65787 2.67674 12.0568 4 1 1
 243 6 5.66911 2.11574 11.6646 4 1 1
 244 7 5.70398 1.60114 11.2381 4 1 1
 245 8 5.8065 0.935342 11.1821 4 1 1
 246 9 5.86982 0.261822 11.2629 4 1 1
 247 10 5.87478 -0.315938 11.6105 4 1 1
 248 11 5.84354 -0.740298 12.1258 4 1 1
 249 12 5.78582 -0.769788 12.7998 4 1 1
 250 13 5.73202 -0.611026 13.455 4 1 1
 251 3 6.01006 1.37174 12.2392 4 1 1
 252 3 6.05638 1.12658 12.1314 4 1 1
 253 3 6.1165 0.769062 12.1182 4 1 1
 254 3 6.15542 0.495782 12.1922 4 1 1
 255 3 6.16666 0.286942 12.3531 4 1 1
 256 3 6.15346 0.122742 12.5385 4 1 1
 257 3 6.54474 0.0673819 12.8083 4 1 1
 258 3 6.52726 0.139022 13.0427 4 1 1
 259 3 6.53118 0.263422 13.2719 4 1 1
 260 3 6.56758 0.471862 13.4715 4 1 1
 261 3 6.62094 0.805782 13.6143 4 1 1
 262 3 6.66062 1.07398 13.6209 4 1 1
 263 2 6.31914 2.44186 13.2017 4 1 1
 264 4 5.93486 1.3223 12.9366 4 1 1
 265 4 6.73442 1.32898 12.9625 4 1 1
 266 4 5.92934 0.751902 13.2279 4 1 1
 267 4 6.7289 0.758582 13.2538 4 1 1
 268 4 5.9537 0.932822 12.4284 4 1 1
 269 4 6.75326 0.939502 12.4543 4 1 1
 270 23 6.3413 0.676782 12.8568 4 1 1
 271 22 6.98334 -0.19701 11.6738 4 1 1
 272 21 6.94314 -0.608946 12.1887 4 1 1
 273 20 6.88138 -0.882798 12.8079 4 1 1
 274 19 6.83946 -0.717318 13.454 4 1 1
 275 18 6.82774 -0.338738 14.0131 4 1 1
 276 17 6.8763 0.230782 14.3916 4 1 1
 277 16 6.96474 0.866382 14.6247 4 1 1
 278 15 6.98618 1.50842 14.4607 4 1 1
 279 14 6.92286 2.18314 14.3721 4 1 1
 280 2 6.54398 2.43398 12.4395 4 1 1
 281 2 6.71402 2.2051 11.8306 4 1 1
 282 2 6.78582 1.67718 11.4321 4 1 1
 283 2 6.94378 1.07358 11.2143 4 1 1
 284 2 6.96182 0.423742 11.4107 4 1 1
 285 1 6.98334 -0.19701 11.6738 0 1 1
 286 1 6.94314 -0.608946 12.1887 0 1 1
 287 1 6.88138 -0.882798 12.8079 0 1 1
 288 1 6.83946 -0.717318 13.454 0 1 1
 289 1 6.82774 -0.338738 14.0131 0 1 1
 290 1 6.8763 0.230782 14.3916 0 1 1
 291 1 6.96474 0.866382 14.6247 0 1 1
 292 1 6.98618 1.50842 14.4607 0 1 1
 293 1 6.92286 2.18314 14.3721 0 1 1
 294 1 7.12152 2.20827 15.3518 0 1 1
 295 1 8.03582 2.591 15.4843 0 1 1
 296 1 8.70487 2.46614 16.2169 0 1 1
 297 1 8.88403 2.22251 15.2638 0 1 1
 298 1 8.16396 2.03878 15.9329 0 1 1
 299 1 8.22343 1.11657 16.315 0 1 1
 300 1 7.72957 0.247916 16.2756 0 1 1
 301 1 8.6945 0.491021 16.1765 0 1 1
 302 1 9.34231 2.79602 16.9941 0 1 1
 303 1 9.35354 2.23502 16.6018 0 1 1
 304 1 9.38842 1.72042 16.1754 0 1 1
 305 1 9.49094 1.05462 16.1194 0 1 1
 306 1 9.55426 0.381101 16.2001 0 1 1
 307 1 9.55922 -0.196659 16.5478 0 1 1
 308 1 9.52798 -0.621019 17.063 0 1 1
 309 1 9.47026 -0.650509 17.737 0 1 1
 310 1 9.41646 -0.491747 18.3922 0 1 1
 311 2 9.41066 -0.0476913 18.8888 5 1 1
 312 2 9.41546 0.468301 19.346 5 1 1
 313 2 9.5599 1.10526 19.4146 5 1 1
 314 2 9.61922 1.75242 19.2728 5 1 1
 315 2 9.7839 2.22838 18.8302 5 1 1
 316 5 9.34231 2.79602 16.9941 5 1 1
 317 6 9.35354 2.23502 16.6018 5 1 1
 318 7 9.38842 1.72042 16.1754 5 1 1
 319 8 9.49094 1.05462 16.1194 5 1 1
 320 9 9.55426 0.381101 16.2001 5 1 1
 321 10 9.55922 -0.196659 16.5478 5 1 1
 322 11 9.52798 -0.621019 17.063 5 1 1
 323 12 9.47026 -0.650509 17.737 5 1 1
 324 13 9.41646 -0.491747 18.3922 5 1 1
 325 3 9.6945 1.49102 17.1765 5 1 1
 326 3 9.74082 1.24586 17.0686 5 1 1
 327 3 9.80094 0.888341 17.0555 5 1 1
 328 3 9.83986 0.615061 17.1295 5 1 1
 329 3 9.8511 0.406221 17.2903 5 1 1
 330 3 9.8379 0.242021 17.4758 5 1 1
 331 3 10.2292 0.186661 17.7456 5 1 1
 332 3 10.2117 0.258301 17.98 5 1 1
 333 3 10.2156 0.382701 18.2091 5 1 1
 334 3 10.252 0.591141 18.4088 5 1 1
 335 3 10.3054 0.925061 18.5516 5 1 1
 336 3 10.3451 1.19326 18.5582 5 1 1
 337 2 10.0036 2.56114 18.1389 5 1 1
 338 4 9.6193 1.44158 17.8738 5 1 1
 339 4 10.4189 1.44826 17.8997 5 1 1
 340 4 9.61378 0.871181 18.1652 5 1 1
 341 4 10.4133 0.877861 18.1911 5 1 1
 342 4 9.63814 1.0521 17.3656 5 1 1
 343 4 10.4377 1.05878 17.3915 5 1 1
 344 23 10.0257 0.796061 17.7941 5 1 1
 345 22 10.6678 -0.0777313 16.6111 5 1 1
 346 21 10.6276 -0.489667 17.126 5 1 1
 347 20 10.5658 -0.763519 17.7451 5 1 1
 348 19 10.5239 -0.598039 18.3913 5 1 1
 349 18 10.5122 -0.219459 18.9504 5 1 1
 350 17 10.5607 0.350061 19.3288 5 1 1
 351 16 10.6492 0.985661 19.5619 5 1 1
 352 15 10.6706 1.6277 19.398 5 1 1
 353 14 10.6073 2.30242 19.3093 5 1 1
 354 2 10.2284 2.55326 17.3768 5 1 1
 355 2 10.3985 2.32438 16.7678 5 1 1
 356 2 10.4703 1.79646 16.3693 5 1 1
 357 2 10.6282 1.19286 16.1515 5 1 1
 358 2 10.6463 0.543021 16.3479 5 1 1
 359 1 10.6678 -0.0777313 16.6111 0 1 1
 360 1 10.6276 -0.489667 17.126 0 1 1
 361 1 10.5658 -0.763519 17.7451 0 1 1
 362 1 10.5239 -0.598039 18.3913 0 1 1
 363 1 10.5122 -0.219459 18.9504 0 1 1
 364 1 10.5607 0.350061 19.3288 0 1 1
 365 1 10.6492 0.985661 19.5619 0 1 1
 366 1 10.6706 1.6277 19.398 0 1 1
 367 1 10.6073 2.30242 19.3093 0 1 1
 368 1 11.4996 1.89505 19.504 0 1 1
 369 1 11.4604 1.68297 18.5275 0 1 1
 370 1 11.4044 0.90595 19.1545 0 1 1
 371 1 10.854 1.62423 18.7288 0 1 1
 372 1 11.2726 2.34194 18.1723 0 1 1
 373 1 11.989 1.66982 18.3593 0 1 1
 374 1 11.7418 2.11726 17.4999 0 1 1
 375 1 12.2582 1.70813 18.2521 0 1 1
 376 1 12.9061 4.01313 19.0697 0 1 1
 377 1 12.9173 3.45213 18.6775 0 1 1
 378 1 12.9522 2.93753 18.251 0 1 1
 379 1 13.0547 2.27173 18.195 0 1 1
 380 1 13.118 1.59821 18.2758 0 1 1
 381 1 13.123 1.02045 18.6234 0 1 1
 382 1 13.0917 0.596088 19.1387 0 1 1
 383 1 13.034 0.566598 19.8127 0 1 1
 384 1 12.9802 0.72536 20.4679 0 1 1
 385 2 12.9744 1.16942 20.9644 6 1 1
 386 2 12.9792 1.68541 21.4217 6 1 1
 387 2 13.1236 2.32237 21.4902 6 1 1
 388 2 13.183 2.96953 21.3484 6 1 1
 389 2 13.3476 3.44549 20.9058 6 1 1
 390 5 12.9061 4.01313 19.0697 6 1 1
 391 6 12.9173 3.45213 18.6775 6 1 1
 392 7 12.9522 2.93753 18.251 6 1 1
 393 8 13.0547 2.27173 18.195 6 1 1
 394 9 13.118 1.59821 18.2758 6 1 1
 395 10 13.123 1.02045 18.6234 6 1 1
 396 11 13.0917 0.596088 19.1387 6 1 1
 397 12 13.034 0.566598 19.8127 6 1 1
 398 13 12.9802 0.72536 20.4679 6 1 1
 399 3 13.2582 2.70813 19.2521 6 1 1
 400 3 13.3046 2.46297 19.1443 6 1 1
 401 3 13.3647 2.10545 19.1311 6 1 1
 402 3 13.4036 1.83217 19.2051 6 1 1
 403 3 13.4148 1.62333 19.366 6 1 1
 404 3 13.4016 1.45913 19.5514 6 1 1
 405 3 13.7929 1.40377 19.8212 6 1 1
 406 3 13.7754 1.47541 20.0556 6 1 1
 407 3 13.7794 1.59981 20.2848 6 1 1
 408 3 13.8158 1.80825 20.4844 6 1 1
 409 3 13.8691 2.14217 20.6272 6 1 1
 410 3 13.9088 2.41037 20.6338 6 1 1
 411 2 13.5673 3.77825 20.2146 6 1 1
 412 4 13.183 2.65869 19.9495 6 1 1
 413 4 13.9826 2.66537 19.9754 6 1 1
 414 4 13.1775 2.08829 20.2408 6 1 1
 415 4 13.9771 2.09497 20.2667 6 1 1
 416 4 13.2019 2.26921 19.4413 6 1 1
 417 4 14.0014 2.27589 19.4672 6 1 1
 418 23 13.5895 2.01317 19.8697 6 1 1
 419 22 14.2315 1.13938 18.6867 6 1 1
 420 21 14.1913 0.72744 19.2016 6 1 1
 421 20 14.1296 0.453588 19.8208 6 1 1
 422 19 14.0876 0.619068 20.4669 6 1 1
 423 18 14.0759 0.997648 21.026 6 1 1
 424 17 14.1245 1.56717 21.4045 6 1 1
 425 16 14.2129 2.20277 21.6376 6 1 1
 426 15 14.2344 2.84481 21.4736 6 1 1
 427 14 14.171 3.51953 21.385 6 1 1
 428 2 13.7922 3.77037 19.4524 6 1 1
 429 2 13.9622 3.54149 18.8435 6 1 1
 430 2 14.034 3.01357 18.445 6 1 1
 431 2 14.192 2.40997 18.2272 6 1 1
 432 2 14.21 1.76013 18.4236 6 1 1
 433 1 14.2315 1.13938 18.6867 0 1 1
 434 1 14.1913 0.72744 19.2016 0 1 1
 435 1 14.1296 0.453588 19.8208 0 1 1
 436 1 14.0876 0.619068 20.4669 0 1 1
 437 1 14.0759 0.997648 21.026 0 1 1
 438 1 14.1245 1.56717 21.4045 0 1 1
 439 1 14.2129 2.20277 21.6376 0 1 1
 440 1 14.2344 2.84481 21.4736 0 1 1
 441 1 14.171 3.51953 21.385 0 1 1
 442 1 13.8256 2.69766 21.8379 0 1 1
 443 1 13.7099 2.6256 20.8473 0 1 1
 444 1 14.2654 1.94263 20.373 0 1 1
 445 1 15.1374 1.49114 20.5617 0 1 1
 446 1 15.5133 0.619158 20.8754 0 1 1
 447 1 16.2228 0.174914 20.3284 0 1 1
 448 1 16.4356 1.15047 20.3834 0 1 1
 449 1 16.572 1.07559 19.3956 0 1 1
 450 1 17.2199 3.38059 20.2132 0 1 1
 451 1 17.2311 2.81959 19.8209 0 1 1
 452 1 17.266 2.30499 19.3944 0 1 1
 453 1 17.3685 1.63919 19.3385 0 1 1
 454 1 17.4318 0.965675 19.4192 0 1 1
 455 1 17.4368 0.387915 19.7669 0 1 1
 456 1 17.4055 -0.0364452 20.2821 0 1 1
 457 1 17.3478 -0.0659352 20.9561 0 1 1
 458 1 17.294 0.0928268 21.6113 0 1 1
 459 2 17.2882 0.536883 22.1079 7 1 1
 460 2 17.293 1.05287 22.5651 7 1 1
 461 2 17.4374 1.68983 22.6337 7 1 1
 462 2 17.4968 2.33699 22.4919 7 1 1
 463 2 17.6614 2.81295 22.0493 7 1 1
 464 5 17.2199 3.38059 20.2132 7 1 1
 465 6 17.2311 2.81959 19.8209 7 1 1
 466 7 17.266 2.30499 19.3944 7 1 1
 467 8 17.3685 1.63919 19.3385 7 1 1
 468 9 17.4318 0.965675 19.4192 7 1 1
 469 10 17.4368 0.387915 19.7669 7 1 1
 470 11 17.4055 -0.0364452 20.2821 7 1 1
 471 12 17.3478 -0.0659352 20.9561 7 1 1
 472 13 17.294 0.0928268 21.6113 7 1 1
 473 3 17.572 2.07559 20.3956 7 1 1
 474 3 17.6184 1.83043 20.2877 7 1 1
 475 3 17.6785 1.47291 20.2746 7 1 1
 476 3 17.7174 1.19963 20.3486 7 1 1
 477 3 17.7286 0.990795 20.5094 7 1 1
 478 3 17.7154 0.826595 20.6949 7 1 1
 479 3 18.1067 0.771235 20.9647 7 1 1
 480 3 18.0892 0.842875 21.1991 7 1 1
 481 3 18.0932 0.967275 21.4282 7 1 1
 482 3 18.1296 1.17571 21.6279 7 1 1
 483 3 18.1829 1.50963 21.7707 7 1 1
 484 3 18.2226 1.77783 21.7773 7 1 1
 485 2 17.8811 3.14571 21.358 7 1 1
 486 4 17.4968 2.02615 21.0929 7 1 1
 487 4 18.2964 2.03283 21.1188 7 1 1
 488 4 17.4913 1.45575 21.3843 7 1 1
 489 4 18.2909 1.46243 21.4102 7 1 1
 490 4 17.5157 1.63667 20.5847 7 1 1
 491 4 18.3152 1.64335 20.6106 7 1 1
 492 23 17.9033 1.38063 21.0132 7 1 1
 493 22 18.5453 0.506843 19.8302 7 1 1
 494 21 18.5051 0.0949068 20.3451 7 1 1
 495 20 18.4434 -0.178945 20.9642 7 1 1
 496 19 18.4014 -0.0134652 21.6104 7 1 1
 497 18 18.3897 0.365115 22.1695 7 1 1
 498 17 18.4383 0.934635 22.5479 7 1 1
 499 16 18.5267 1.57023 22.781 7 1 1
 500 15 18.5482 2.21227 22.6171 7 1 1
 501 14 18.4848 2.88699 22.5284 7 1 1
 502 2 18.106 3.13783 20.5959 7 1 1
 503 2 18.276 2.90895 19.9869 7 1 1
 504 2 18.3478 2.38103 19.5884 7 1 1
 505 2 18.5058 1.77743 19.3706 7 1 1
 506 2 18.5238 1.12759 19.567 7 1 1
 507 1 18.5453 0.506843 19.8302 0 1 1
 508 1 18.5051 0.0949068 20.3451 0 1 1
 509 1 18.4434 -0.178945 20.9642 0 1 1
 510 1 18.4014 -0.0134652 21.6104 0 1 1
 511 1 18.3897 0.365115 22.1695 0 1 1
 512 1 18.4383 0.934635 22.5479 0 1 1
 513 1 18.5267 1.57023 22.781 0 1 1
 514 1 18.5482 2.21227 22.6171 0 1 1
 515 1 18.4848 2.88699 22.5284 0 1 1
 516 1 18.813 2.58289 23.4227 0 1 1
 517 1 17.991 2.95747 22.9939 0 1 1
 518 1 17.8106 3.87006 22.6269 0 1 1
 519 1 17.5906 4.45269 21.8445 0 1 1
 520 1 17.7381 5.42779 22.0102 0 1 1
 521 1 17.6469 5.97591 22.8416 0 1 1
 522 1 16.795 6.46896 22.6652 0 1 1
 523 1 17.2183 6.18821 23.5266 0 1 1
 524 1 17.8662 8.49321 24.3442 0 1 1
 525 1 17.8774 7.93221 23.9519 0 1 1
 526 1 17.9123 7.41761 23.5254 0 1 1
 527 1 18.0148 6.75181 23.4695 0 1 1
 528 1 18.0781 6.07829 23.5502 0 1 1
 529 1 18.0831 5.50053 23.8979 0 1 1
 530 1 18.0518 5.07617 24.4131 0 1 1
 531 1 17.9941 5.04668 25.0871 0 1 1
 532 1 17.9403 5.20544 25.7423 0 1 1
 533 2 17.9345 5.6495 26.2388 8 1 1
 534 2 17.9393 6.16549 26.6961 8 1 1
 535 2 18.0837 6.80245 26.7647 8 1 1
 536 2 18.1431 7.44961 26.6228 8 1 1
 537 2 18.3077 7.92557 26.1803 8 1 1
 538 5 17.8662 8.49321 24.3442 8 1 1
 539 6 17.8774 7.93221 23.9519 8 1 1
 540 7 17.9123 7.41761 23.5254 8 1 1
 541 8 18.0148 6.75181 23.4695 8 1 1
 542 9 18.0781 6.07829 23.5502 8 1 1
 543 10 18.0831 5.50053 23.8979 8 1 1
 544 11 18.0518 5.07617 24.4131 8 1 1
 545 12 17.9941 5.04668 25.0871 8 1 1
 546 13 17.9403 5.20544 25.7423 8 1 1
 547 3 18.2183 7.18821 24.5266 8 1 1
 548 3 18.2647 6.94305 24.4187 8 1 1
 549 3 18.3248 6.58553 24.4056 8 1 1
 550 3 18.3637 6.31225 24.4796 8 1 1
 551 3 18.3749 6.10341 24.6404 8 1 1
 552 3 18.3617 5.93921 24.8259 8 1 1
 553 3 18.753 5.88385 25.0956 8 1 1
 554 3 18.7355 5.95549 25.33 8 1 1
 555 3 18.7395 6.07989 25.5592 8 1 1
 556 3 18.7759 6.28833 25.7588 8 1 1
 557 3 18.8292 6.62225 25.9016 8 1 1
 558 3 18.8689 6.89045 25.9083 8 1 1
 559 2 18.5274 8.25833 25.489 8 1 1
 560 4 18.1431 7.13877 25.2239 8 1 1
 561 4 18.9427 7.14545 25.2498 8 1 1
 562 4 18.1376 6.56837 25.5153 8 1 1
 563 4 18.9372 6.57505 25.5412 8 1 1
 564 4 18.162 6.74929 24.7157 8 1 1
 565 4 18.9615 6.75597 24.7416 8 1 1
 566 23 18.5496 6.49325 25.1442 8 1 1
 567 22 19.1916 5.61946 23.9612 8 1 1
 568 21 19.1514 5.20752 24.4761 8 1 1
 569 20 19.0897 4.93367 25.0952 8 1 1
 570 19 19.0477 5.09915 25.7414 8 1 1
 571 18 19.036 5.47773 26.3004 8 1 1
 572 17 19.0846 6.04725 26.6789 8 1 1
 573 16 19.173 6.68285 26.912 8 1 1
 574 15 19.1945 7.32489 26.7481 8 1 1
 575 14 19.1311 7.99961 26.6594 8 1 1
 576 2 18.7523 8.25045 24.7269 8 1 1
 577 2 18.9223 8.02157 24.1179 8 1 1
 578 2 18.9941 7.49365 23.7194 8 1 1
 579 2 19.1521 6.89005 23.5016 8 1 1
 580 2 19.1701 6.24021 23.698 8 1 1
 581 1 19.1916 5.61946 23.9612 0 1 1
 582 1 19.1514 5.20752 24.4761 0 1 1
 583 1 19.0897 4.93367 25.0952 0 1 1
 584 1 19.0477 5.09915 25.7414 0 1 1
 585 1 19.036 5.47773 26.3004 0 1 1
 586 1 19.0846 6.04725 26.6789 0 1 1
 587 1 19.173 6.68285 26.912 0 1 1
 588 1 19.1945 7.32489 26.7481 0 1 1
 589 1 19.1311 7.99961 26.6594 0 1 1
 590 1 19.3548 8.22632 27.6073 0 1 1
 591 1 19.4206 7.22859 27.6216 0 1 1
 592 1 19.4645 7.20957 26.6228 0 1 1
 593 1 18.8432 7.77005 26.0752 0 1 1
 594 1 18.3632 8.28992 25.3686 0 1 1
 595 1 18.4519 9.08307 25.9712 0 1 1
 596 1 18.4858 10.0475 25.7088 0 1 1
 597 1 18.4342 9.58968 26.5964 0 1 1
 598 1 19.082 11.8947 27.414 0 1 1
 599 1 19.0933 11.3337 27.0218 0 1 1
 600 1 19.1281 10.8191 26.5953 0 1 1
 601 1 19.2307 10.1533 26.5393 0 1 1
 602 1 19.294 9.47976 26.6201 0 1 1
 603 1 19.2989 8.902 26.9677 0 1 1
 604 1 19.2677 8.47764 27.483 0 1 1
 605 1 19.21 8.44815 28.157 0 1 1
 606 1 19.1562 8.60692 28.8122 0 1 1
 607 2 19.1504 9.05097 29.3087 9 1 1
 608 2 19.1552 9.56696 29.766 9 1 1
 609 2 19.2996 10.2039 29.8345 9 1 1
 610 2 19.3589 10.8511 29.6927 9 1 1
 611 2 19.5236 11.327 29.2501 9 1 1
 612 5 19.082 11.8947 27.414 9 1 1
 613 6 19.0933 11.3337 27.0218 9 1 1
 614 7 19.1281 10.8191 26.5953 9 1 1
 615 8 19.2307 10.1533 26.5393 9 1 1
 616 9 19.294 9.47976 26.6201 9 1 1
 617 10 19.2989 8.902 26.9677 9 1 1
 618 11 19.2677 8.47764 27.483 9 1 1
 619 12 19.21 8.44815 28.157 9 1 1
 620 13 19.1562 8.60692 28.8122 9 1 1
 621 3 19.4342 10.5897 27.5964 9 1 1
 622 3 19.4805 10.3445 27.4886 9 1 1
 623 3 19.5407 9.987 27.4754 9 1 1
 624 3 19.5796 9.71372 27.5494 9 1 1
 625 3 19.5908 9.50488 27.7103 9 1 1
 626 3 19.5776 9.34068 27.8957 9 1 1
 627 3 19.9689 9.28532 28.1655 9 1 1
 628 3 19.9514 9.35696 28.3999 9 1 1
 629 3 19.9553 9.48136 28.6291 9 1 1
 630 3 19.9917 9.6898 28.8287 9 1 1
 631 3 20.0451 10.0237 28.9715 9 1 1
 632 3 20.0848 10.2919 28.9781 9 1 1
 633 2 19.7433 11.6598 28.5589 9 1 1
 634 4 19.359 10.5402 28.2938 9 1 1
 635 4 20.1586 10.5469 28.3197 9 1 1
 636 4 19.3535 9.96984 28.5851 9 1 1
 637 4 20.1531 9.97652 28.611 9 1 1
 638 4 19.3779 10.1508 27.7856 9 1 1
 639 4 20.1774 10.1574 27.8115 9 1 1
 640 23 19.7655 9.89472 28.214 9 1 1
 641 22 20.4075 9.02093 27.031 9 1 1
 642 21 20.3673 8.609 27.5459 9 1 1
 643 20 20.3055 8.33514 28.1651 9 1 1
 644 19 20.2636 8.50062 28.8112 9 1 1
 645 18 20.2519 8.8792 29.3703 9 1 1
 646 17 20.3005 9.44872 29.7488 9 1 1
 647 16 20.3889 10.0843 29.9819 9 1 1
 648 15 20.4103 10.7264 29.8179 9 1 1
 649 14 20.347 11.4011 29.7293 9 1 1
 650 2 19.9681 11.6519 27.7967 9 1 1
 651 2 20.1382 11.423 27.1878 9 1 1
 652 2 20.21 10.8951 26.7893 9 1 1
 653 2 20.3679 10.2915 26.5715 9 1 1
 654 2 20.386 9.64168 26.7679 9 1 1
 655 1 20.4075 9.02093 27.031 0 1 1
 656 1 20.3673 8.609 27.5459 0 1 1
 657 1 20.3055 8.33514 28.1651 0 1 1
 658 1 20.2636 8.50062 28.8112 0 1 1
 659 1 20.2519 8.8792 29.3703 0 1 1
 660 1 20.3005 9.44872 29.7488 0 1 1
 661 1 20.3889 10.0843 29.9819 0 1 1
 662 1 20.4103 10.7264 29.8179 0 1 1
 663 1 20.347 11.4011 29.7293 0 1 1
 664 1 20.4506 11.0313 30.6526 0 1 1
 665 1 20.4354 10.5385 31.5226 0 1 1
 666 1 20.6561 10.4669 32.4953 0 1 1
 667 1 20.4933 10.4447 33.4817 0 1 1
 668 1 20.5261 10.9695 34.3324 0 1 1
 669 1 20.4616 10.3796 33.5274 0 1 1
 670 1 21.3246 10.2004 33.0552 0 1 1
 671 1 21.3799 9.2965 32.6309 0 1 1
 672 1 22.0278 11.6015 33.4485 0 1 1
 673 1 22.039 11.0405 33.0563 0 1 1
 674 1 22.0739 10.5259 32.6298 0 1 1
 675 1 22.1764 9.8601 32.5739 0 1 1
 676 1 22.2397 9.18658 32.6546 0 1 1
 677 1 22.2447 8.60882 33.0022 0 1 1
 678 1 22.2134 8.18446 33.5175 0 1 1
 679 1 22.1557 8.15497 34.1915 0 1 1
 680 1 22.1019 8.31373 34.8467 0 1 1
 681 2 22.0961 8.75778 35.3432 10 1 1
 682 2 22.1009 9.27378 35.8005 10 1 1
 683 2 22.2453 9.91074 35.869 10 1 1
 684 2 22.3047 10.5579 35.7272 10 1 1
 685 2 22.4693 11.0339 35.2846 10 1 1
 686 5 22.0278 11.6015 33.4485 10 1 1
 687 6 22.039 11.0405 33.0563 10 1 1
 688 7 22.0739 10.5259 32.6298 10 1 1
 689 8 22.1764 9.8601 32.5739 10 1 1
 690 9 22.2397 9.18658 32.6546 10 1 1
 691 10 22.2447 8.60882 33.0022 10 1 1
 692 11 22.2134 8.18446 33.5175 10 1 1
 693 12 22.1557 8.15497 34.1915 10 1 1
 694 13 22.1019 8.31373 34.8467 10 1 1
 695 3 22.3799 10.2965 33.6309 10 1 1
 696 3 22.4263 10.0513 33.5231 10 1 1
 697 3 22.4864 9.69382 33.5099 10 1 1
 698 3 22.5253 9.42054 33.5839 10 1 1
 699 3 22.5365 9.2117 33.7448 10 1 1
 700 3 22.5233 9.0475 33.9302 10 1 1
 701 3 22.9146 8.99214 34.2 10 1 1
 702 3 22.8971 9.06378 34.4344 10 1 1
 703 3 22.9011 9.18818 34.6636 10 1 1
 704 3 22.9375 9.39662 34.8632 10 1 1
 705 3 22.9908 9.73054 35.006 10 1 1
 706 3 23.0305 9.99874 35.0126 10 1 1
 707 2 22.689 11.3666 34.5934 10 1 1
 708 4 22.3047 10.2471 34.3283 10 1 1
 709 4 23.1043 10.2537 34.3542 10 1 1
 710 4 22.2992 9.67666 34.6196 10 1 1
 711 4 23.0988 9.68334 34.6455 10 1 1
 712 4 22.3236 9.85758 33.8201 10 1 1
 713 4 23.1231 9.86426 33.846 10 1 1
 714 23 22.7112 9.60154 34.2485 10 1 1
 715 22 23.3532 8.72774 33.0655 10 1 1
 716 21 23.313 8.31581 33.5804 10 1 1
 717 20 23.2513 8.04196 34.1996 10 1 1
 718 19 23.2093 8.20744 34.8457 10 1 1
 719 18 23.1976 8.58602 35.4048 10 1 1
 720 17 23.2462 9.15554 35.7833 10 1 1
 721 16 23.3346 9.79114 36.0164 10 1 1
 722 15 23.3561 10.4332 35.8524 10 1 1
 723 14 23.2927 11.1079 35.7638 10 1 1
 724 2 22.9139 11.3587 33.8312 10 1 1
 725 2 23.0839 11.1299 33.2223 10 1 1
 726 2 23.1557 10.6019 32.8238 10 1 1
 727 2 23.3137 9.99834 32.606 10 1 1
 728 2 23.3317 9.3485 32.8024 10 1 1
 729 1 23.3532 8.72774 33.0655 0 1 1
 730 1 23.313 8.31581 33.5804 0 1 1
 731 1 23.2513 8.04196 34.1996 0 1 1
 732 1 23.2093 8.20744 34.8457 0 1 1
 733 1 23.1976 8.58602 35.4048 0 1 1
 734 1 23.2462 9.15554 35.7833 0 1 1
 735 1 23.3346 9.79114 36.0164 0 1 1
 736 1 23.3561 10.4332 35.8524 0 1 1
 737 1 23.2927 11.1079 35.7638 0 1 1
 738 1 23.4843 11.3249 36.7209 0 1 1
 739 1 24.3641 11.796 36.6575 0 1 1
 740 1 24.4254 12.005 37.6335 0 1 1
 741 1 24.8462 11.106 37.7544 0 1 1
 742 1 24.8803 10.133 37.5261 0 1 1

 Ellipsoids

 1 1 1 1 1 0 0 0
 2 1 1 1 1 0 0 0
 3 1 1 1 1 0 0 0
 4 1 1 1 1 0 0 0
 5 1 1 1 1 0 0 0
 6 1 1 1 1 0 0 0
 7 1 1 1 1 0 0 0
 8 1 1 1 1 0 0 0
 9 1 1 1 1 0 0 0
 10 1 1 1 1 0 0 0
 11 1 1 1 1 0 0 0
 12 1 1 1 1 0 0 0
 13 1 1 1 1 0 0 0
 14 1 1 1 1 0 0 0
 15 1 1 1 -0.64382 0.292396 0.287906 0.64584
 16 1 1 1 1 0 0 0
 17 1 1 1 1 0 0 0
 18 1 1 1 1 0 0 0
 19 1 1 1 1 0 0 0
 20 1 1 1 1 0 0 0
 21 1 1 1 1 0 0 0
 22 1 1 1 1 0 0 0
 23 1 1 1 1 0 0 0
 24 1 1 1 1 0 0 0
 25 1 1 1 1 0 0 0
 26 1 1 1 1 0 0 0
 27 1 1 1 1 0 0 0
 28 1 1 1 1 0 0 0
 29 1 1 1 1 0 0 0
 30 1 1 1 1 0 0 0
 31 1 1 1 1 0 0 0
 32 1 1 1 1 0 0 0
 33 1 1 1 1 0 0 0
 34 1 1 1 1 0 0 0
 35 1 1 1 1 0 0 0
 36 1 1 1 1 0 0 0
 37 1 1 1 1 0 0 0
 38 1 1 1 1 0 0 0
 39 1 1 1 1 0 0 0
 40 1 1 1 1 0 0 0
 41 1 1 1 1 0 0 0
 42 1 1 1 1 0 0 0
 43 1 1 1 1 0 0 0
 44 1 1 1 1 0 0 0
 45 1 1 1 1 0 0 0
 46 1 1 1 1 0 0 0
 47 1 1 1 1 0 0 0
 48 1 1 1 0.707107 0 0.707107 0
 49 1 1 1 1 0 0 0
 50 1 1 1 1 0 0 0
 51 1 1 1 1 0 0 0
 52 1 1 1 1 0 0 0
 53 1 1 1 1 0 0 0
 54 1 1 1 1 0 0 0
 55 1 1 1 1 0 0 0
 56 1 1 1 1 0 0 0
 57 1 1 1 1 0 0 0
 58 1 1 1 1 0 0 0
 59 1 1 1 1 0 0 0
 60 1 1 1 1 0 0 0
 61 1 1 1 1 0 0 0
 62 1 1 1 -0.585378 -0.373887 -0.406398 0.593618
 63 1 1 1 1 0 0 0
 64 1 1 1 1 0 0 0
 65 1 1 1 1 0 0 0
 66 1 1 1 1 0 0 0
 67 1 1 1 1 0 0 0
 68 1 1 1 1 0 0 0
 69 1 1 1 1 0 0 0
 70 1 1 1 1 0 0 0
 71 1 1 1 1 0 0 0
 72 1 1 1 1 0 0 0
 73 1 1 1 1 0 0 0
 74 1 1 1 1 0 0 0
 75 1 1 1 1 0 0 0
 76 1 1 1 1 0 0 0
 77 1 1 1 1 0 0 0
 78 1 1 1 1 0 0 0
 79 1 1 1 1 0 0 0
 80 1 1 1 1 0 0 0
 81 1 1 1 1 0 0 0
 82 1 1 1 1 0 0 0
 83 1 1 1 1 0 0 0
 84 1 1 1 1 0 0 0
 85 1 1 1 1 0 0 0
 86 1 1 1 1 0 0 0
 87 1 1 1 1 0 0 0
 88 1 1 1 1 0 0 0
 89 1 1 1 -0.64382 0.292396 0.287906 0.64584
 90 1 1 1 1 0 0 0
 91 1 1 1 1 0 0 0
 92 1 1 1 1 0 0 0
 93 1 1 1 1 0 0 0
 94 1 1 1 1 0 0 0
 95 1 1 1 1 0 0 0
 96 1 1 1 1 0 0 0
 97 1 1 1 1 0 0 0
 98 1 1 1 1 0 0 0
 99 1 1 1 1 0 0 0
 100 1 1 1 1 0 0 0
 101 1 1 1 1 0 0 0
 102 1 1 1 1 0 0 0
 103 1 1 1 1 0 0 0
 104 1 1 1 1 0 0 0
 105 1 1 1 1 0 0 0
 106 1 1 1 1 0 0 0
 107 1 1 1 1 0 0 0
 108 1 1 1 1 0 0 0
 109 1 1 1 1 0 0 0
 110 1 1 1 1 0 0 0
 111 1 1 1 1 0 0 0
 112 1 1 1 1 0 0 0
 113 1 1 1 1 0 0 0
 114 1 1 1 1 0 0 0
 115 1 1 1 1 0 0 0
 116 1 1 1 1 0 0 0
 117 1 1 1 1 0 0 0
 118 1 1 1 1 0 0 0
 119 1 1 1 1 0 0 0
 120 1 1 1 1 0 0 0
 121 1 1 1 1 0 0 0
 122 1 1 1 0.707107 0 0.707107 0
 123 1 1 1 1 0 0 0
 124 1 1 1 1 0 0 0
 125 1 1 1 1 0 0 0
 126 1 1 1 1 0 0 0
 127 1 1 1 1 0 0 0
 128 1 1 1 1 0 0 0
 129 1 1 1 1 0 0 0
 130 1 1 1 1 0 0 0
 131 1 1 1 1 0 0 0
 132 1 1 1 1 0 0 0
 133 1 1 1 1 0 0 0
 134 1 1 1 1 0 0 0
 135 1 1 1 1 0 0 0
 136 1 1 1 -0.585378 -0.373887 -0.406398 0.593618
 137 1 1 1 1 0 0 0
 138 1 1 1 1 0 0 0
 139 1 1 1 1 0 0 0
 140 1 1 1 1 0 0 0
 141 1 1 1 1 0 0 0
 142 1 1 1 1 0 0 0
 143 1 1 1 1 0 0 0
 144 1 1 1 1 0 0 0
 145 1 1 1 1 0 0 0
 146 1 1 1 1 0 0 0
 147 1 1 1 1 0 0 0
 148 1 1 1 1 0 0 0
 149 1 1 1 1 0 0 0
 150 1 1 1 1 0 0 0
 151 1 1 1 1 0 0 0
 152 1 1 1 1 0 0 0
 153 1 1 1 1 0 0 0
 154 1 1 1 1 0 0 0
 155 1 1 1 1 0 0 0
 156 1 1 1 1 0 0 0
 157 1 1 1 1 0 0 0
 158 1 1 1 1 0 0 0
 159 1 1 1 1 0 0 0
 160 1 1 1 1 0 0 0
 161 1 1 1 1 0 0 0
 162 1 1 1 1 0 0 0
 163 1 1 1 -0.64382 0.292396 0.287906 0.64584
 164 1 1 1 1 0 0 0
 165 1 1 1 1 0 0 0
 166 1 1 1 1 0 0 0
 167 1 1 1 1 0 0 0
 168 1 1 1 1 0 0 0
 169 1 1 1 1 0 0 0
 170 1 1 1 1 0 0 0
 171 1 1 1 1 0 0 0
 172 1 1 1 1 0 0 0
 173 1 1 1 1 0 0 0
 174 1 1 1 1 0 0 0
 175 1 1 1 1 0 0 0
 176 1 1 1 1 0 0 0
 177 1 1 1 1 0 0 0
 178 1 1 1 1 0 0 0
 179 1 1 1 1 0 0 0
 180 1 1 1 1 0 0 0
 181 1 1 1 1 0 0 0
 182 1 1 1 1 0 0 0
 183 1 1 1 1 0 0 0
 184 1 1 1 1 0 0 0
 185 1 1 1 1 0 0 0
 186 1 1 1 1 0 0 0
 187 1 1 1 1 0 0 0
 188 1 1 1 1 0 0 0
 189 1 1 1 1 0 0 0
 190 1 1 1 1 0 0 0
 191 1 1 1 1 0 0 0
 192 1 1 1 1 0 0 0
 193 1 1 1 1 0 0 0
 194 1 1 1 1 0 0 0
 195 1 1 1 1 0 0 0
 196 1 1 1 0.707107 0 0.707107 0
 197 1 1 1 1 0 0 0
 198 1 1 1 1 0 0 0
 199 1 1 1 1 0 0 0
 200 1 1 1 1 0 0 0
 201 1 1 1 1 0 0 0
 202 1 1 1 1 0 0 0
 203 1 1 1 1 0 0 0
 204 1 1 1 1 0 0 0
 205 1 1 1 1 0 0 0
 206 1 1 1 1 0 0 0
 207 1 1 1 1 0 0 0
 208 1 1 1 1 0 0 0
 209 1 1 1 1 0 0 0
 210 1 1 1 -0.585378 -0.373887 -0.406398 0.593618
 211 1 1 1 1 0 0 0
 212 1 1 1 1 0 0 0
 213 1 1 1 1 0 0 0
 214 1 1 1 1 0 0 0
 215 1 1 1 1 0 0 0
 216 1 1 1 1 0 0 0
 217 1 1 1 1 0 0 0
 218 1 1 1 1 0 0 0
 219 1 1 1 1 0 0 0
 220 1 1 1 1 0 0 0
 221 1 1 1 1 0 0 0
 222 1 1 1 1 0 0 0
 223 1 1 1 1 0 0 0
 224 1 1 1 1 0 0 0
 225 1 1 1 1 0 0 0
 226 1 1 1 1 0 0 0
 227 1 1 1 1 0 0 0
 228 1 1 1 1 0 0 0
 229 1 1 1 1 0 0 0
 230 1 1 1 1 0 0 0
 231 1 1 1 1 0 0 0
 232 1 1 1 1 0 0 0
 233 1 1 1 1 0 0 0
 234 1 1 1 1 0 0 0
 235 1 1 1 1 0 0 0
 236 1 1 1 1 0 0 0
 237 1 1 1 -0.64382 0.292396 0.287906 0.64584
 238 1 1 1 1 0 0 0
 239 1 1 1 1 0 0 0
 240 1 1 1 1 0 0 0
 241 1 1 1 1 0 0 0
 242 1 1 1 1 0 0 0
 243 1 1 1 1 0 0 0
 244 1 1 1 1 0 0 0
 245 1 1 1 1 0 0 0
 246 1 1 1 1 0 0 0
 247 1 1 1 1 0 0 0
 248 1 1 1 1 0 0 0
 249 1 1 1 1 0 0 0
 250 1 1 1 1 0 0 0
 251 1 1 1 1 0 0 0
 252 1 1 1 1 0 0 0
 253 1 1 1 1 0 0 0
 254 1 1 1 1 0 0 0
 255 1 1 1 1 0 0 0
 256 1 1 1 1 0 0 0
 257 1 1 1 1 0 0 0
 258 1 1 1 1 0 0 0
 259 1 1 1 1 0 0 0
 260 1 1 1 1 0 0 0
 261 1 1 1 1 0 0 0
 262 1 1 1 1 0 0 0
 263 1 1 1 1 0 0 0
 264 1 1 1 1 0 0 0
 265 1 1 1 1 0 0 0
 266 1 1 1 1 0 0 0
 267 1 1 1 1 0 0 0
 268 1 1 1 1 0 0 0
 269 1 1 1 1 0 0 0
 270 1 1 1 0.707107 0 0.707107 0
 271 1 1 1 1 0 0 0
 272 1 1 1 1 0 0 0
 273 1 1 1 1 0 0 0
 274 1 1 1 1 0 0 0
 275 1 1 1 1 0 0 0
 276 1 1 1 1 0 0 0
 277 1 1 1 1 0 0 0
 278 1 1 1 1 0 0 0
 279 1 1 1 1 0 0 0
 280 1 1 1 1 0 0 0
 281 1 1 1 1 0 0 0
 282 1 1 1 1 0 0 0
 283 1 1 1 1 0 0 0
 284 1 1 1 -0.585378 -0.373887 -0.406398 0.593618
 285 1 1 1 1 0 0 0
 286 1 1 1 1 0 0 0
 287 1 1 1 1 0 0 0
 288 1 1 1 1 0 0 0
 289 1 1 1 1 0 0 0
 290 1 1 1 1 0 0 0
 291 1 1 1 1 0 0 0
 292 1 1 1 1 0 0 0
 293 1 1 1 1 0 0 0
 294 1 1 1 1 0 0 0
 295 1 1 1 1 0 0 0
 296 1 1 1 1 0 0 0
 297 1 1 1 1 0 0 0
 298 1 1 1 1 0 0 0
 299 1 1 1 1 0 0 0
 300 1 1 1 1 0 0 0
 301 1 1 1 1 0 0 0
 302 1 1 1 1 0 0 0
 303 1 1 1 1 0 0 0
 304 1 1 1 1 0 0 0
 305 1 1 1 1 0 0 0
 306 1 1 1 1 0 0 0
 307 1 1 1 1 0 0 0
 308 1 1 1 1 0 0 0
 309 1 1 1 1 0 0 0
 310 1 1 1 1 0 0 0
 311 1 1 1 -0.64382 0.292396 0.287906 0.64584
 312 1 1 1 1 0 0 0
 313 1 1 1 1 0 0 0
 314 1 1 1 1 0 0 0
 315 1 1 1 1 0 0 0
 316 1 1 1 1 0 0 0
 317 1 1 1 1 0 0 0
 318 1 1 1 1 0 0 0
 319 1 1 1 1 0 0 0
 320 1 1 1 1 0 0 0
 321 1 1 1 1 0 0 0
 322 1 1 1 1 0 0 0
 323 1 1 1 1 0 0 0
 324 1 1 1 1 0 0 0
 325 1 1 1 1 0 0 0
 326 1 1 1 1 0 0 0
 327 1 1 1 1 0 0 0
 328 1 1 1 1 0 0 0
 329 1 1 1 1 0 0 0
 330 1 1 1 1 0 0 0
 331 1 1 1 1 0 0 0
 332 1 1 1 1 0 0 0
 333 1 1 1 1 0 0 0
 334 1 1 1 1 0 0 0
 335 1 1 1 1 0 0 0
 336 1 1 1 1 0 0 0
 337 1 1 1 1 0 0 0
 338 1 1 1 1 0 0 0
 339 1 1 1 1 0 0 0
 340 1 1 1 1 0 0 0
 341 1 1 1 1 0 0 0
 342 1 1 1 1 0 0 0
 343 1 1 1 1 0 0 0
 344 1 1 1 0.707107 0 0.707107 0
 345 1 1 1 1 0 0 0
 346 1 1 1 1 0 0 0
 347 1 1 1 1 0 0 0
 348 1 1 1 1 0 0 0
 349 1 1 1 1 0 0 0
 350 1 1 1 1 0 0 0
 351 1 1 1 1 0 0 0
 352 1 1 1 1 0 0 0
 353 1 1 1 1 0 0 0
 354 1 1 1 1 0 0 0
 355 1 1 1 1 0 0 0
 356 1 1 1 1 0 0 0
 357 1 1 1 1 0 0 0
 358 1 1 1 -0.585378 -0.373887 -0.406398 0.593618
 359 1 1 1 1 0 0 0
 360 1 1 1 1 0 0 0
 361 1 1 1 1 0 0 0
 362 1 1 1 1 0 0 0
 363 1 1 1 1 0 0 0
 364 1 1 1 1 0 0 0
 365 1 1 1 1 0 0 0
 366 1 1 1 1 0 0 0
 367 1 1 1 1 0 0 0
 368 1 1 1 1 0 0 0
 369 1 1 1 1 0 0 0
 370 1 1 1 1 0 0 0
 371 1 1 1 1 0 0 0
 372 1 1 1 1 0 0 0
 373 1 1 1 1 0 0 0
 374 1 1 1 1 0 0 0
 375 1 1 1 1 0 0 0
 376 1 1 1 1 0 0 0
 377 1 1 1 1 0 0 0
 378 1 1 1 1 0 0 0
 379 1 1 1 1 0 0 0
 380 1 1 1 1 0 0 0
 381 1 1 1 1 0 0 0
 382 1 1 1 1 0 0 0
 383 1 1 1 1 0 0 0
 384 1 1 1 1 0 0 0
 385 1 1 1 -0.64382 0.292396 0.287906 0.64584
 386 1 1 1 1 0 0 0
 387 1 1 1 1 0 0 0
 388 1 1 1 1 0 0 0
 389 1 1 1 1 0 0 0
 390 1 1 1 1 0 0 0
 391 1 1 1 1 0 0 0
 392 1 1 1 1 0 0 0
 393 1 1 1 1 0 0 0
 394 1 1 1 1 0 0 0
 395 1 1 1 1 0 0 0
 396 1 1 1 1 0 0 0
 397 1 1 1 1 0 0 0
 398 1 1 1 1 0 0 0
 399 1 1 1 1 0 0 0
 400 1 1 1 1 0 0 0
 401 1 1 1 1 0 0 0
 402 1 1 1 1 0 0 0
 403 1 1 1 1 0 0 0
 404 1 1 1 1 0 0 0
 405 1 1 1 1 0 0 0
 406 1 1 1 1 0 0 0
 407 1 1 1 1 0 0 0
 408 1 1 1 1 0 0 0
 409 1 1 1 1 0 0 0
 410 1 1 1 1 0 0 0
 411 1 1 1 1 0 0 0
 412 1 1 1 1 0 0 0
 413 1 1 1 1 0 0 0
 414 1 1 1 1 0 0 0
 415 1 1 1 1 0 0 0
 416 1 1 1 1 0 0 0
 417 1 1 1 1 0 0 0
 418 1 1 1 0.707107 0 0.707107 0
 419 1 1 1 1 0 0 0
 420 1 1 1 1 0 0 0
 421 1 1 1 1 0 0 0
 422 1 1 1 1 0 0 0
 423 1 1 1 1 0 0 0
 424 1 1 1 1 0 0 0
 425 1 1 1 1 0 0 0
 426 1 1 1 1 0 0 0
 427 1 1 1 1 0 0 0
 428 1 1 1 1 0 0 0
 429 1 1 1 1 0 0 0
 430 1 1 1 1 0 0 0
 431 1 1 1 1 0 0 0
 432 1 1 1 -0.585378 -0.373887 -0.406398 0.593618
 433 1 1 1 1 0 0 0
 434 1 1 1 1 0 0 0
 435 1 1 1 1 0 0 0
 436 1 1 1 1 0 0 0
 437 1 1 1 1 0 0 0
 438 1 1 1 1 0 0 0
 439 1 1 1 1 0 0 0
 440 1 1 1 1 0 0 0
 441 1 1 1 1 0 0 0
 442 1 1 1 1 0 0 0
 443 1 1 1 1 0 0 0
 444 1 1 1 1 0 0 0
 445 1 1 1 1 0 0 0
 446 1 1 1 1 0 0 0
 447 1 1 1 1 0 0 0
 448 1 1 1 1 0 0 0
 449 1 1 1 1 0 0 0
 450 1 1 1 1 0 0 0
 451 1 1 1 1 0 0 0
 452 1 1 1 1 0 0 0
 453 1 1 1 1 0 0 0
 454 1 1 1 1 0 0 0
 455 1 1 1 1 0 0 0
 456 1 1 1 1 0 0 0
 457 1 1 1 1 0 0 0
 458 1 1 1 1 0 0 0
 459 1 1 1 -0.64382 0.292396 0.287906 0.64584
 460 1 1 1 1 0 0 0
 461 1 1 1 1 0 0 0
 462 1 1 1 1 0 0 0
 463 1 1 1 1 0 0 0
 464 1 1 1 1 0 0 0
 465 1 1 1 1 0 0 0
 466 1 1 1 1 0 0 0
 467 1 1 1 1 0 0 0
 468 1 1 1 1 0 0 0
 469 1 1 1 1 0 0 0
 470 1 1 1 1 0 0 0
 471 1 1 1 1 0 0 0
 472 1 1 1 1 0 0 0
 473 1 1 1 1 0 0 0
 474 1 1 1 1 0 0 0
 475 1 1 1 1 0 0 0
 476 1 1 1 1 0 0 0
 477 1 1 1 1 0 0 0
 478 1 1 1 1 0 0 0
 479 1 1 1 1 0 0 0
 480 1 1 1 1 0 0 0
 481 1 1 1 1 0 0 0
 482 1 1 1 1 0 0 0
 483 1 1 1 1 0 0 0
 484 1 1 1 1 0 0 0
 485 1 1 1 1 0 0 0
 486 1 1 1 1 0 0 0
 487 1 1 1 1 0 0 0
 488 1 1 1 1 0 0 0
 489 1 1 1 1 0 0 0
 490 1 1 1 1 0 0 0
 491 1 1 1 1 0 0 0
 492 1 1 1 0.707107 0 0.707107 0
 493 1 1 1 1 0 0 0
 494 1 1 1 1 0 0 0
 495 1 1 1 1 0 0 0
 496 1 1 1 1 0 0 0
 497 1 1 1 1 0 0 0
 498 1 1 1 1 0 0 0
 499 1 1 1 1 0 0 0
 500 1 1 1 1 0 0 0
 501 1 1 1 1 0 0 0
 502 1 1 1 1 0 0 0
 503 1 1 1 1 0 0 0
 504 1 1 1 1 0 0 0
 505 1 1 1 1 0 0 0
 506 1 1 1 -0.585378 -0.373887 -0.406398 0.593618
 507 1 1 1 1 0 0 0
 508 1 1 1 1 0 0 0
 509 1 1 1 1 0 0 0
 510 1 1 1 1 0 0 0
 511 1 1 1 1 0 0 0
 512 1 1 1 1 0 0 0
 513 1 1 1 1 0 0 0
 514 1 1 1 1 0 0 0
 515 1 1 1 1 0 0 0
 516 1 1 1 1 0 0 0
 517 1 1 1 1 0 0 0
 518 1 1 1 1 0 0 0
 519 1 1 1 1 0 0 0
 520 1 1 1 1 0 0 0
 521 1 1 1 1 0 0 0
 522 1 1 1 1 0 0 0
 523 1 1 1 1 0 0 0
 524 1 1 1 1 0 0 0
 525 1 1 1 1 0 0 0
 526 1 1 1 1 0 0 0
 527 1 1 1 1 0 0 0
 528 1 1 1 1 0 0 0
 529 1 1 1 1 0 0 0
 530 1 1 1 1 0 0 0
 531 1 1 1 1 0 0 0
 532 1 1 1 1 0 0 0
 533 1 1 1 -0.64382 0.292396 0.287906 0.64584
 534 1 1 1 1 0 0 0
 535 1 1 1 1 0 0 0
 536 1 1 1 1 0 0 0
 537 1 1 1 1 0 0 0
 538 1 1 1 1 0 0 0
 539 1 1 1 1 0 0 0
 540 1 1 1 1 0 0 0
 541 1 1 1 1 0 0 0
 542 1 1 1 1 0 0 0
 543 1 1 1 1 0 0 0
 544 1 1 1 1 0 0 0
 545 1 1 1 1 0 0 0
 546 1 1 1 1 0 0 0
 547 1 1 1 1 0 0 0
 548 1 1 1 1 0 0 0
 549 1 1 1 1 0 0 0
 550 1 1 1 1 0 0 0
 551 1 1 1 1 0 0 0
 552 1 1 1 1 0 0 0
 553 1 1 1 1 0 0 0
 554 1 1 1 1 0 0 0
 555 1 1 1 1 0 0 0
 556 1 1 1 1 0 0 0
 557 1 1 1 1 0 0 0
 558 1 1 1 1 0 0 0
 559 1 1 1 1 0 0 0
 560 1 1 1 1 0 0 0
 561 1 1 1 1 0 0 0
 562 1 1 1 1 0 0 0
 563 1 1 1 1 0 0 0
 564 1 1 1 1 0 0 0
 565 1 1 1 1 0 0 0
 566 1 1 1 0.707107 0 0.707107 0
 567 1 1 1 1 0 0 0
 568 1 1 1 1 0 0 0
 569 1 1 1 1 0 0 0
 570 1 1 1 1 0 0 0
 571 1 1 1 1 0 0 0
 572 1 1 1 1 0 0 0
 573 1 1 1 1 0 0 0
 574 1 1 1 1 0 0 0
 575 1 1 1 1 0 0 0
 576 1 1 1 1 0 0 0
 577 1 1 1 1 0 0 0
 578 1 1 1 1 0 0 0
 579 1 1 1 1 0 0 0
 580 1 1 1 -0.585378 -0.373887 -0.406398 0.593618
 581 1 1 1 1 0 0 0
 582 1 1 1 1 0 0 0
 583 1 1 1 1 0 0 0
 584 1 1 1 1 0 0 0
 585 1 1 1 1 0 0 0
 586 1 1 1 1 0 0 0
 587 1 1 1 1 0 0 0
 588 1 1 1 1 0 0 0
 589 1 1 1 1 0 0 0
 590 1 1 1 1 0 0 0
 591 1 1 1 1 0 0 0
 592 1 1 1 1 0 0 0
 593 1 1 1 1 0 0 0
 594 1 1 1 1 0 0 0
 595 1 1 1 1 0 0 0
 596 1 1 1 1 0 0 0
 597 1 1 1 1 0 0 0
 598 1 1 1 1 0 0 0
 599 1 1 1 1 0 0 0
 600 1 1 1 1 0 0 0
 601 1 1 1 1 0 0 0
 602 1 1 1 1 0 0 0
 603 1 1 1 1 0 0 0
 604 1 1 1 1 0 0 0
 605 1 1 1 1 0 0 0
 606 1 1 1 1 0 0 0
 607 1 1 1 -0.64382 0.292396 0.287906 0.64584
 608 1 1 1 1 0 0 0
 609 1 1 1 1 0 0 0
 610 1 1 1 1 0 0 0
 611 1 1 1 1 0 0 0
 612 1 1 1 1 0 0 0
 613 1 1 1 1 0 0 0
 614 1 1 1 1 0 0 0
 615 1 1 1 1 0 0 0
 616 1 1 1 1 0 0 0
 617 1 1 1 1 0 0 0
 618 1 1 1 1 0 0 0
 619 1 1 1 1 0 0 0
 620 1 1 1 1 0 0 0
 621 1 1 1 1 0 0 0
 622 1 1 1 1 0 0 0
 623 1 1 1 1 0 0 0
 624 1 1 1 1 0 0 0
 625 1 1 1 1 0 0 0
 626 1 1 1 1 0 0 0
 627 1 1 1 1 0 0 0
 628 1 1 1 1 0 0 0
 629 1 1 1 1 0 0 0
 630 1 1 1 1 0 0 0
 631 1 1 1 1 0 0 0
 632 1 1 1 1 0 0 0
 633 1 1 1 1 0 0 0
 634 1 1 1 1 0 0 0
 635 1 1 1 1 0 0 0
 636 1 1 1 1 0 0 0
 637 1 1 1 1 0 0 0
 638 1 1 1 1 0 0 0
 639 1 1 1 1 0 0 0
 640 1 1 1 0.707107 0 0.707107 0
 641 1 1 1 1 0 0 0
 642 1 1 1 1 0 0 0
 643 1 1 1 1 0 0 0
 644 1 1 1 1 0 0 0
 645 1 1 1 1 0 0 0
 646 1 1 1 1 0 0 0
 647 1 1 1 1 0 0 0
 648 1 1 1 1 0 0 0
 649 1 1 1 1 0 0 0
 650 1 1 1 1 0 0 0
 651 1 1 1 1 0 0 0
 652 1 1 1 1 0 0 0
 653 1 1 1 1 0 0 0
 654 1 1 1 -0.585378 -0.373887 -0.406398 0.593618
 655 1 1 1 1 0 0 0
 656 1 1 1 1 0 0 0
 657 1 1 1 1 0 0 0
 658 1 1 1 1 0 0 0
 659 1 1 1 1 0 0 0
 660 1 1 1 1 0 0 0
 661 1 1 1 1 0 0 0
 662 1 1 1 1 0 0 0
 663 1 1 1 1 0 0 0
 664 1 1 1 1 0 0 0
 665 1 1 1 1 0 0 0
 666 1 1 1 1 0 0 0
 667 1 1 1 1 0 0 0
 668 1 1 1 1 0 0 0
 669 1 1 1 1 0 0 0
 670 1 1 1 1 0 0 0
 671 1 1 1 1 0 0 0
 672 1 1 1 1 0 0 0
 673 1 1 1 1 0 0 0
 674 1 1 1 1 0 0 0
 675 1 1 1 1 0 0 0
 676 1 1 1 1 0 0 0
 677 1 1 1 1 0 0 0
 678 1 1 1 1 0 0 0
 679 1 1 1 1 0 0 0
 680 1 1 1 1 0 0 0
 681 1 1 1 -0.64382 0.292396 0.287906 0.64584
 682 1 1 1 1 0 0 0
 683 1 1 1 1 0 0 0
 684 1 1 1 1 0 0 0
 685 1 1 1 1 0 0 0
 686 1 1 1 1 0 0 0
 687 1 1 1 1 0 0 0
 688 1 1 1 1 0 0 0
 689 1 1 1 1 0 0 0
 690 1 1 1 1 0 0 0
 691 1 1 1 1 0 0 0
 692 1 1 1 1 0 0 0
 693 1 1 1 1 0 0 0
 694 1 1 1 1 0 0 0
 695 1 1 1 1 0 0 0
 696 1 1 1 1 0 0 0
 697 1 1 1 1 0 0 0
 698 1 1 1 1 0 0 0
 699 1 1 1 1 0 0 0
 700 1 1 1 1 0 0 0
 701 1 1 1 1 0 0 0
 702 1 1 1 1 0 0 0
 703 1 1 1 1 0 0 0
 704 1 1 1 1 0 0 0
 705 1 1 1 1 0 0 0
 706 1 1 1 1 0 0 0
 707 1 1 1 1 0 0 0
 708 1 1 1 1 0 0 0
 709 1 1 1 1 0 0 0
 710 1 1 1 1 0 0 0
 711 1 1 1 1 0 0 0
 712 1 1 1 1 0 0 0
 713 1 1 1 1 0 0 0
 714 1 1 1 0.707107 0 0.707107 0
 715 1 1 1 1 0 0 0
 716 1 1 1 1 0 0 0
 717 1 1 1 1 0 0 0
 718 1 1 1 1 0 0 0
 719 1 1 1 1 0 0 0
 720 1 1 1 1 0 0 0
 721 1 1 1 1 0 0 0
 722 1 1 1 1 0 0 0
 723 1 1 1 1 0 0 0
 724 1 1 1 1 0 0 0
 725 1 1 1 1 0 0 0
 726 1 1 1 1 0 0 0
 727 1 1 1 1 0 0 0
 728 1 1 1 -0.585378 -0.373887 -0.406398 0.593618
 729 1 1 1 1 0 0 0
 730 1 1 1 1 0 0 0
 731 1 1 1 1 0 0 0
 732 1 1 1 1 0 0 0
 733 1 1 1 1 0 0 0
 734 1 1 1 1 0 0 0
 735 1 1 1 1 0 0 0
 736 1 1 1 1 0 0 0
 737 1 1 1 1 0 0 0
 738 1 1 1 1 0 0 0
 739 1 1 1 1 0 0 0
 740 1 1 1 1 0 0 0
 741 1 1 1 1 0 0 0
 742 1 1 1 1 0 0 0

Velocities

 1 0 0 0 0 0 0
 2 0 0 0 0 0 0
 3 0 0 0 0 0 0
 4 0 0 0 0 0 0
 5 0 0 0 0 0 0
 6 0 0 0 0 0 0
 7 0 0 0 0 0 0
 8 0 0 0 0 0 0
 9 0 0 0 0 0 0
 10 0 0 0 0 0 0
 11 0 0 0 0 0 0
 12 0 0 0 0 0 0
 13 0 0 0 0 0 0
 14 0 0 0 0 0 0
 15 0 0 0 0 0 0
 16 0 0 0 0 0 0
 17 0 0 0 0 0 0
 18 0 0 0 0 0 0
 19 0 0 0 0 0 0
 20 0 0 0 0 0 0
 21 0 0 0 0 0 0
 22 0 0 0 0 0 0
 23 0 0 0 0 0 0
 24 0 0 0 0 0 0
 25 0 0 0 0 0 0
 26 0 0 0 0 0 0
 27 0 0 0 0 0 0
 28 0 0 0 0 0 0
 29 0 0 0 0 0 0
 30 0 0 0 0 0 0
 31 0 0 0 0 0 0
 32 0 0 0 0 0 0
 33 0 0 0 0 0 0
 34 0 0 0 0 0 0
 35 0 0 0 0 0 0
 36 0 0 0 0 0 0
 37 0 0 0 0 0 0
 38 0 0 0 0 0 0
 39 0 0 0 0 0 0
 40 0 0 0 0 0 0
 41 0 0 0 0 0 0
 42 0 0 0 0 0 0
 43 0 0 0 0 0 0
 44 0 0 0 0 0 0
 45 0 0 0 0 0 0
 46 0 0 0 0 0 0
 47 0 0 0 0 0 0
 48 0 0 0 0 0 0
 49 0 0 0 0 0 0
 50 0 0 0 0 0 0
 51 0 0 0 0 0 0
 52 0 0 0 0 0 0
 53 0 0 0 0 0 0
 54 0 0 0 0 0 0
 55 0 0 0 0 0 0
 56 0 0 0 0 0 0
 57 0 0 0 0 0 0
 58 0 0 0 0 0 0
 59 0 0 0 0 0 0
 60 0 0 0 0 0 0
 61 0 0 0 0 0 0
 62 0 0 0 0 0 0
 63 0 0 0 0 0 0
 64 0 0 0 0 0 0
 65 0 0 0 0 0 0
 66 0 0 0 0 0 0
 67 0 0 0 0 0 0
 68 0 0 0 0 0 0
 69 0 0 0 0 0 0
 70 0 0 0 0 0 0
 71 0 0 0 0 0 0
 72 0 0 0 0 0 0
 73 0 0 0 0 0 0
 74 0 0 0 0 0 0
 75 0 0 0 0 0 0
 76 0 0 0 0 0 0
 77 0 0 0 0 0 0
 78 0 0 0 0 0 0
 79 0 0 0 0 0 0
 80 0 0 0 0 0 0
 81 0 0 0 0 0 0
 82 0 0 0 0 0 0
 83 0 0 0 0 0 0
 84 0 0 0 0 0 0
 85 0 0 0 0 0 0
 86 0 0 0 0 0 0
 87 0 0 0 0 0 0
 88 0 0 0 0 0 0
 89 0 0 0 0 0 0
 90 0 0 0 0 0 0
 91 0 0 0 0 0 0
 92 0 0 0 0 0 0
 93 0 0 0 0 0 0
 94 0 0 0 0 0 0
 95 0 0 0 0 0 0
 96 0 0 0 0 0 0
 97 0 0 0 0 0 0
 98 0 0 0 0 0 0
 99 0 0 0 0 0 0
 100 0 0 0 0 0 0
 101 0 0 0 0 0 0
 102 0 0 0 0 0 0
 103 0 0 0 0 0 0
 104 0 0 0 0 0 0
 105 0 0 0 0 0 0
 106 0 0 0 0 0 0
 107 0 0 0 0 0 0
 108 0 0 0 0 0 0
 109 0 0 0 0 0 0
 110 0 0 0 0 0 0
 111 0 0 0 0 0 0
 112 0 0 0 0 0 0
 113 0 0 0 0 0 0
 114 0 0 0 0 0 0
 115 0 0 0 0 0 0
 116 0 0 0 0 0 0
 117 0 0 0 0 0 0
 118 0 0 0 0 0 0
 119 0 0 0 0 0 0
 120 0 0 0 0 0 0
 121 0 0 0 0 0 0
 122 0 0 0 0 0 0
 123 0 0 0 0 0 0
 124 0 0 0 0 0 0
 125 0 0 0 0 0 0
 126 0 0 0 0 0 0
 127 0 0 0 0 0 0
 128 0 0 0 0 0 0
 129 0 0 0 0 0 0
 130 0 0 0 0 0 0
 131 0 0 0 0 0 0
 132 0 0 0 0 0 0
 133 0 0 0 0 0 0
 134 0 0 0 0 0 0
 135 0 0 0 0 0 0
 136 0 0 0 0 0 0
 137 0 0 0 0 0 0
 138 0 0 0 0 0 0
 139 0 0 0 0 0 0
 140 0 0 0 0 0 0
 141 0 0 0 0 0 0
 142 0 0 0 0 0 0
 143 0 0 0 0 0 0
 144 0 0 0 0 0 0
 145 0 0 0 0 0 0
 146 0 0 0 0 0 0
 147 0 0 0 0 0 0
 148 0 0 0 0 0 0
 149 0 0 0 0 0 0
 150 0 0 0 0 0 0
 151 0 0 0 0 0 0
 152 0 0 0 0 0 0
 153 0 0 0 0 0 0
 154 0 0 0 0 0 0
 155 0 0 0 0 0 0
 156 0 0 0 0 0 0
 157 0 0 0 0 0 0
 158 0 0 0 0 0 0
 159 0 0 0 0 0 0
 160 0 0 0 0 0 0
 161 0 0 0 0 0 0
 162 0 0 0 0 0 0
 163 0 0 0 0 0 0
 164 0 0 0 0 0 0
 165 0 0 0 0 0 0
 166 0 0 0 0 0 0
 167 0 0 0 0 0 0
 168 0 0 0 0 0 0
 169 0 0 0 0 0 0
 170 0 0 0 0 0 0
 171 0 0 0 0 0 0
 172 0 0 0 0 0 0
 173 0 0 0 0 0 0
 174 0 0 0 0 0 0
 175 0 0 0 0 0 0
 176 0 0 0 0 0 0
 177 0 0 0 0 0 0
 178 0 0 0 0 0 0
 179 0 0 0 0 0 0
 180 0 0 0 0 0 0
 181 0 0 0 0 0 0
 182 0 0 0 0 0 0
 183 0 0 0 0 0 0
 184 0 0 0 0 0 0
 185 0 0 0 0 0 0
 186 0 0 0 0 0 0
 187 0 0 0 0 0 0
 188 0 0 0 0 0 0
 189 0 0 0 0 0 0
 190 0 0 0 0 0 0
 191 0 0 0 0 0 0
 192 0 0 0 0 0 0
 193 0 0 0 0 0 0
 194 0 0 0 0 0 0
 195 0 0 0 0 0 0
 196 0 0 0 0 0 0
 197 0 0 0 0 0 0
 198 0 0 0 0 0 0
 199 0 0 0 0 0 0
 200 0 0 0 0 0 0
 201 0 0 0 0 0 0
 202 0 0 0 0 0 0
 203 0 0 0 0 0 0
 204 0 0 0 0 0 0
 205 0 0 0 0 0 0
 206 0 0 0 0 0 0
 207 0 0 0 0 0 0
 208 0 0 0 0 0 0
 209 0 0 0 0 0 0
 210 0 0 0 0 0 0
 211 0 0 0 0 0 0
 212 0 0 0 0 0 0
 213 0 0 0 0 0 0
 214 0 0 0 0 0 0
 215 0 0 0 0 0 0
 216 0 0 0 0 0 0
 217 0 0 0 0 0 0
 218 0 0 0 0 0 0
 219 0 0 0 0 0 0
 220 0 0 0 0 0 0
 221 0 0 0 0 0 0
 222 0 0 0 0 0 0
 223 0 0 0 0 0 0
 224 0 0 0 0 0 0
 225 0 0 0 0 0 0
 226 0 0 0 0 0 0
 227 0 0 0 0 0 0
 228 0 0 0 0 0 0
 229 0 0 0 0 0 0
 230 0 0 0 0 0 0
 231 0 0 0 0 0 0
 232 0 0 0 0 0 0
 233 0 0 0 0 0 0
 234 0 0 0 0 0 0
 235 0 0 0 0 0 0
 236 0 0 0 0 0 0
 237 0 0 0 0 0 0
 238 0 0 0 0 0 0
 239 0 0 0 0 0 0
 240 0 0 0 0 0 0
 241 0 0 0 0 0 0
 242 0 0 0 0 0 0
 243 0 0 0 0 0 0
 244 0 0 0 0 0 0
 245 0 0 0 0 0 0
 246 0 0 0 0 0 0
 247 0 0 0 0 0 0
 248 0 0 0 0 0 0
 249 0 0 0 0 0 0
 250 0 0 0 0 0 0
 251 0 0 0 0 0 0
 252 0 0 0 0 0 0
 253 0 0 0 0 0 0
 254 0 0 0 0 0 0
 255 0 0 0 0 0 0
 256 0 0 0 0 0 0
 257 0 0 0 0 0 0
 258 0 0 0 0 0 0
 259 0 0 0 0 0 0
 260 0 0 0 0 0 0
 261 0 0 0 0 0 0
 262 0 0 0 0 0 0
 263 0 0 0 0 0 0
 264 0 0 0 0 0 0
 265 0 0 0 0 0 0
 266 0 0 0 0 0 0
 267 0 0 0 0 0 0
 268 0 0 0 0 0 0
 269 0 0 0 0 0 0
 270 0 0 0 0 0 0
 271 0 0 0 0 0 0
 272 0 0 0 0 0 0
 273 0 0 0 0 0 0
 274 0 0 0 0 0 0
 275 0 0 0 0 0 0
 276 0 0 0 0 0 0
 277 0 0 0 0 0 0
 278 0 0 0 0 0 0
 279 0 0 0 0 0 0
 280 0 0 0 0 0 0
 281 0 0 0 0 0 0
 282 0 0 0 0 0 0
 283 0 0 0 0 0 0
 284 0 0 0 0 0 0
 285 0 0 0 0 0 0
 286 0 0 0 0 0 0
 287 0 0 0 0 0 0
 288 0 0 0 0 0 0
 289 0 0 0 0 0 0
 290 0 0 0 0 0 0
 291 0 0 0 0 0 0
 292 0 0 0 0 0 0
 293 0 0 0 0 0 0
 294 0 0 0 0 0 0
 295 0 0 0 0 0 0
 296 0 0 0 0 0 0
 297 0 0 0 0 0 0
 298 0 0 0 0 0 0
 299 0 0 0 0 0 0
 300 0 0 0 0 0 0
 301 0 0 0 0 0 0
 302 0 0 0 0 0 0
 303 0 0 0 0 0 0
 304 0 0 0 0 0 0
 305 0 0 0 0 0 0
 306 0 0 0 0 0 0
 307 0 0 0 0 0 0
 308 0 0 0 0 0 0
 309 0 0 0 0 0 0
 310 0 0 0 0 0 0
 311 0 0 0 0 0 0
 312 0 0 0 0 0 0
 313 0 0 0 0 0 0
 314 0 0 0 0 0 0
 315 0 0 0 0 0 0
 316 0 0 0 0 0 0
 317 0 0 0 0 0 0
 318 0 0 0 0 0 0
 319 0 0 0 0 0 0
 320 0 0 0 0 0 0
 321 0 0 0 0 0 0
 322 0 0 0 0 0 0
 323 0 0 0 0 0 0
 324 0 0 0 0 0 0
 325 0 0 0 0 0 0
 326 0 0 0 0 0 0
 327 0 0 0 0 0 0
 328 0 0 0 0 0 0
 329 0 0 0 0 0 0
 330 0 0 0 0 0 0
 331 0 0 0 0 0 0
 332 0 0 0 0 0 0
 333 0 0 0 0 0 0
 334 0 0 0 0 0 0
 335 0 0 0 0 0 0
 336 0 0 0 0 0 0
 337 0 0 0 0 0 0
 338 0 0 0 0 0 0
 339 0 0 0 0 0 0
 340 0 0 0 0 0 0
 341 0 0 0 0 0 0
 342 0 0 0 0 0 0
 343 0 0 0 0 0 0
 344 0 0 0 0 0 0
 345 0 0 0 0 0 0
 346 0 0 0 0 0 0
 347 0 0 0 0 0 0
 348 0 0 0 0 0 0
 349 0 0 0 0 0 0
 350 0 0 0 0 0 0
 351 0 0 0 0 0 0
 352 0 0 0 0 0 0
 353 0 0 0 0 0 0
 354 0 0 0 0 0 0
 355 0 0 0 0 0 0
 356 0 0 0 0 0 0
 357 0 0 0 0 0 0
 358 0 0 0 0 0 0
 359 0 0 0 0 0 0
 360 0 0 0 0 0 0
 361 0 0 0 0 0 0
 362 0 0 0 0 0 0
 363 0 0 0 0 0 0
 364 0 0 0 0 0 0
 365 0 0 0 0 0 0
 366 0 0 0 0 0 0
 367 0 0 0 0 0 0
 368 0 0 0 0 0 0
 369 0 0 0 0 0 0
 370 0 0 0 0 0 0
 371 0 0 0 0 0 0
 372 0 0 0 0 0 0
 373 0 0 0 0 0 0
 374 0 0 0 0 0 0
 375 0 0 0 0 0 0
 376 0 0 0 0 0 0
 377 0 0 0 0 0 0
 378 0 0 0 0 0 0
 379 0 0 0 0 0 0
 380 0 0 0 0 0 0
 381 0 0 0 0 0 0
 382 0 0 0 0 0 0
 383 0 0 0 0 0 0
 384 0 0 0 0 0 0
 385 0 0 0 0 0 0
 386 0 0 0 0 0 0
 387 0 0 0 0 0 0
 388 0 0 0 0 0 0
 389 0 0 0 0 0 0
 390 0 0 0 0 0 0
 391 0 0 0 0 0 0
 392 0 0 0 0 0 0
 393 0 0 0 0 0 0
 394 0 0 0 0 0 0
 395 0 0 0 0 0 0
 396 0 0 0 0 0 0
 397 0 0 0 0 0 0
 398 0 0 0 0 0 0
 399 0 0 0 0 0 0
 400 0 0 0 0 0 0
 401 0 0 0 0 0 0
 402 0 0 0 0 0 0
 403 0 0 0 0 0 0
 404 0 0 0 0 0 0
 405 0 0 0 0 0 0
 406 0 0 0 0 0 0
 407 0 0 0 0 0 0
 408 0 0 0 0 0 0
 409 0 0 0 0 0 0
 410 0 0 0 0 0 0
 411 0 0 0 0 0 0
 412 0 0 0 0 0 0
 413 0 0 0 0 0 0
 414 0 0 0 0 0 0
 415 0 0 0 0 0 0
 416 0 0 0 0 0 0
 417 0 0 0 0 0 0
 418 0 0 0 0 0 0
 419 0 0 0 0 0 0
 420 0 0 0 0 0 0
 421 0 0 0 0 0 0
 422 0 0 0 0 0 0
 423 0 0 0 0 0 0
 424 0 0 0 0 0 0
 425 0 0 0 0 0 0
 426 0 0 0 0 0 0
 427 0 0 0 0 0 0
 428 0 0 0 0 0 0
 429 0 0 0 0 0 0
 430 0 0 0 0 0 0
 431 0 0 0 0 0 0
 432 0 0 0 0 0 0
 433 0 0 0 0 0 0
 434 0 0 0 0 0 0
 435 0 0 0 0 0 0
 436 0 0 0 0 0 0
 437 0 0 0 0 0 0
 438 0 0 0 0 0 0
 439 0 0 0 0 0 0
 440 0 0 0 0 0 0
 441 0 0 0 0 0 0
 442 0 0 0 0 0 0
 443 0 0 0 0 0 0
 444 0 0 0 0 0 0
 445 0 0 0 0 0 0
 446 0 0 0 0 0 0
 447 0 0 0 0 0 0
 448 0 0 0 0 0 0
 449 0 0 0 0 0 0
 450 0 0 0 0 0 0
 451 0 0 0 0 0 0
 452 0 0 0 0 0 0
 453 0 0 0 0 0 0
 454 0 0 0 0 0 0
 455 0 0 0 0 0 0
 456 0 0 0 0 0 0
 457 0 0 0 0 0 0
 458 0 0 0 0 0 0
 459 0 0 0 0 0 0
 460 0 0 0 0 0 0
 461 0 0 0 0 0 0
 462 0 0 0 0 0 0
 463 0 0 0 0 0 0
 464 0 0 0 0 0 0
 465 0 0 0 0 0 0
 466 0 0 0 0 0 0
 467 0 0 0 0 0 0
 468 0 0 0 0 0 0
 469 0 0 0 0 0 0
 470 0 0 0 0 0 0
 471 0 0 0 0 0 0
 472 0 0 0 0 0 0
 473 0 0 0 0 0 0
 474 0 0 0 0 0 0
 475 0 0 0 0 0 0
 476 0 0 0 0 0 0
 477 0 0 0 0 0 0
 478 0 0 0 0 0 0
 479 0 0 0 0 0 0
 480 0 0 0 0 0 0
 481 0 0 0 0 0 0
 482 0 0 0 0 0 0
 483 0 0 0 0 0 0
 484 0 0 0 0 0 0
 485 0 0 0 0 0 0
 486 0 0 0 0 0 0
 487 0 0 0 0 0 0
 488 0 0 0 0 0 0
 489 0 0 0 0 0 0
 490 0 0 0 0 0 0
 491 0 0 0 0 0 0
 492 0 0 0 0 0 0
 493 0 0 0 0 0 0
 494 0 0 0 0 0 0
 495 0 0 0 0 0 0
 496 0 0 0 0 0 0
 497 0 0 0 0 0 0
 498 0 0 0 0 0 0
 499 0 0 0 0 0 0
 500 0 0 0 0 0 0
 501 0 0 0 0 0 0
 502 0 0 0 0 0 0
 503 0 0 0 0 0 0
 504 0 0 0 0 0 0
 505 0 0 0 0 0 0
 506 0 0 0 0 0 0
 507 0 0 0 0 0 0
 508 0 0 0 0 0 0
 509 0 0 0 0 0 0
 510 0 0 0 0 0 0
 511 0 0 0 0 0 0
 512 0 0 0 0 0 0
 513 0 0 0 0 0 0
 514 0 0 0 0 0 0
 515 0 0 0 0 0 0
 516 0 0 0 0 0 0
 517 0 0 0 0 0 0
 518 0 0 0 0 0 0
 519 0 0 0 0 0 0
 520 0 0 0 0 0 0
 521 0 0 0 0 0 0
 522 0 0 0 0 0 0
 523 0 0 0 0 0 0
 524 0 0 0 0 0 0
 525 0 0 0 0 0 0
 526 0 0 0 0 0 0
 527 0 0 0 0 0 0
 528 0 0 0 0 0 0
 529 0 0 0 0 0 0
 530 0 0 0 0 0 0
 531 0 0 0 0 0 0
 532 0 0 0 0 0 0
 533 0 0 0 0 0 0
 534 0 0 0 0 0 0
 535 0 0 0 0 0 0
 536 0 0 0 0 0 0
 537 0 0 0 0 0 0
 538 0 0 0 0 0 0
 539 0 0 0 0 0 0
 540 0 0 0 0 0 0
 541 0 0 0 0 0 0
 542 0 0 0 0 0 0
 543 0 0 0 0 0 0
 544 0 0 0 0 0 0
 545 0 0 0 0 0 0
 546 0 0 0 0 0 0
 547 0 0 0 0 0 0
 548 0 0 0 0 0 0
 549 0 0 0 0 0 0
 550 0 0 0 0 0 0
 551 0 0 0 0 0 0
 552 0 0 0 0 0 0
 553 0 0 0 0 0 0
 554 0 0 0 0 0 0
 555 0 0 0 0 0 0
 556 0 0 0 0 0 0
 557 0 0 0 0 0 0
 558 0 0 0 0 0 0
 559 0 0 0 0 0 0
 560 0 0 0 0 0 0
 561 0 0 0 0 0 0
 562 0 0 0 0 0 0
 563 0 0 0 0 0 0
 564 0 0 0 0 0 0
 565 0 0 0 0 0 0
 566 0 0 0 0 0 0
 567 0 0 0 0 0 0
 568 0 0 0 0 0 0
 569 0 0 0 0 0 0
 570 0 0 0 0 0 0
 571 0 0 0 0 0 0
 572 0 0 0 0 0 0
 573 0 0 0 0 0 0
 574 0 0 0 0 0 0
 575 0 0 0 0 0 0
 576 0 0 0 0 0 0
 577 0 0 0 0 0 0
 578 0 0 0 0 0 0
 579 0 0 0 0 0 0
 580 0 0 0 0 0 0
 581 0 0 0 0 0 0
 582 0 0 0 0 0 0
 583 0 0 0 0 0 0
 584 0 0 0 0 0 0
 585 0 0 0 0 0 0
 586 0 0 0 0 0 0
 587 0 0 0 0 0 0
 588 0 0 0 0 0 0
 589 0 0 0 0 0 0
 590 0 0 0 0 0 0
 591 0 0 0 0 0 0
 592 0 0 0 0 0 0
 593 0 0 0 0 0 0
 594 0 0 0 0 0 0
 595 0 0 0 0 0 0
 596 0 0 0 0 0 0
 597 0 0 0 0 0 0
 598 0 0 0 0 0 0
 599 0 0 0 0 0 0
 600 0 0 0 0 0 0
 601 0 0 0 0 0 0
 602 0 0 0 0 0 0
 603 0 0 0 0 0 0
 604 0 0 0 0 0 0
 605 0 0 0 0 0 0
 606 0 0 0 0 0 0
 607 0 0 0 0 0 0
 608 0 0 0 0 0 0
 609 0 0 0 0 0 0
 610 0 0 0 0 0 0
 611 0 0 0 0 0 0
 612 0 0 0 0 0 0
 613 0 0 0 0 0 0
 614 0 0 0 0 0 0
 615 0 0 0 0 0 0
 616 0 0 0 0 0 0
 617 0 0 0 0 0 0
 618 0 0 0 0 0 0
 619 0 0 0 0 0 0
 620 0 0 0 0 0 0
 621 0 0 0 0 0 0
 622 0 0 0 0 0 0
 623 0 0 0 0 0 0
 624 0 0 0 0 0 0
 625 0 0 0 0 0 0
 626 0 0 0 0 0 0
 627 0 0 0 0 0 0
 628 0 0 0 0 0 0
 629 0 0 0 0 0 0
 630 0 0 0 0 0 0
 631 0 0 0 0 0 0
 632 0 0 0 0 0 0
 633 0 0 0 0 0 0
 634 0 0 0 0 0 0
 635 0 0 0 0 0 0
 636 0 0 0 0 0 0
 637 0 0 0 0 0 0
 638 0 0 0 0 0 0
 639 0 0 0 0 0 0
 640 0 0 0 0 0 0
 641 0 0 0 0 0 0
 642 0 0 0 0 0 0
 643 0 0 0 0 0 0
 644 0 0 0 0 0 0
 645 0 0 0 0 0 0
 646 0 0 0 0 0 0
 647 0 0 0 0 0 0
 648 0 0 0 0 0 0
 649 0 0 0 0 0 0
 650 0 0 0 0 0 0
 651 0 0 0 0 0 0
 652 0 0 0 0 0 0
 653 0 0 0 0 0 0
 654 0 0 0 0 0 0
 655 0 0 0 0 0 0
 656 0 0 0 0 0 0
 657 0 0 0 0 0 0
 658 0 0 0 0 0 0
 659 0 0 0 0 0 0
 660 0 0 0 0 0 0
 661 0 0 0 0 0 0
 662 0 0 0 0 0 0
 663 0 0 0 0 0 0
 664 0 0 0 0 0 0
 665 0 0 0 0 0 0
 666 0 0 0 0 0 0
 667 0 0 0 0 0 0
 668 0 0 0 0 0 0
 669 0 0 0 0 0 0
 670 0 0 0 0 0 0
 671 0 0 0 0 0 0
 672 0 0 0 0 0 0
 673 0 0 0 0 0 0
 674 0 0 0 0 0 0
 675 0 0 0 0 0 0
 676 0 0 0 0 0 0
 677 0 0 0 0 0 0
 678 0 0 0 0 0 0
 679 0 0 0 0 0 0
 680 0 0 0 0 0 0
 681 0 0 0 0 0 0
 682 0 0 0 0 0 0
 683 0 0 0 0 0 0
 684 0 0 0 0 0 0
 685 0 0 0 0 0 0
 686 0 0 0 0 0 0
 687 0 0 0 0 0 0
 688 0 0 0 0 0 0
 689 0 0 0 0 0 0
 690 0 0 0 0 0 0
 691 0 0 0 0 0 0
 692 0 0 0 0 0 0
 693 0 0 0 0 0 0
 694 0 0 0 0 0 0
 695 0 0 0 0 0 0
 696 0 0 0 0 0 0
 697 0 0 0 0 0 0
 698 0 0 0 0 0 0
 699 0 0 0 0 0 0
 700 0 0 0 0 0 0
 701 0 0 0 0 0 0
 702 0 0 0 0 0 0
 703 0 0 0 0 0 0
 704 0 0 0 0 0 0
 705 0 0 0 0 0 0
 706 0 0 0 0 0 0
 707 0 0 0 0 0 0
 708 0 0 0 0 0 0
 709 0 0 0 0 0 0
 710 0 0 0 0 0 0
 711 0 0 0 0 0 0
 712 0 0 0 0 0 0
 713 0 0 0 0 0 0
 714 0 0 0 0 0 0
 715 0 0 0 0 0 0
 716 0 0 0 0 0 0
 717 0 0 0 0 0 0
 718 0 0 0 0 0 0
 719 0 0 0 0 0 0
 720 0 0 0 0 0 0
 721 0 0 0 0 0 0
 722 0 0 0 0 0 0
 723 0 0 0 0 0 0
 724 0 0 0 0 0 0
 725 0 0 0 0 0 0
 726 0 0 0 0 0 0
 727 0 0 0 0 0 0
 728 0 0 0 0 0 0
 729 0 0 0 0 0 0
 730 0 0 0 0 0 0
 731 0 0 0 0 0 0
 732 0 0 0 0 0 0
 733 0 0 0 0 0 0
 734 0 0 0 0 0 0
 735 0 0 0 0 0 0
 736 0 0 0 0 0 0
 737 0 0 0 0 0 0
 738 0 0 0 0 0 0
 739 0 0 0 0 0 0
 740 0 0 0 0 0 0
 741 0 0 0 0 0 0
 742 0 0 0 0 0 0

Bonds

 1 1 1 2
 2 1 2 3
 3 1 3 4
 4 1 4 5
 5 1 5 6
 6 1 6 7
 7 1 7 8
 8 1 8 9
 9 1 9 10
 10 1 10 11
 11 1 11 12
 12 1 12 13
 13 1 13 14
 14 1 14 15
 15 1 62 63
 16 1 63 64
 17 1 64 65
 18 1 65 66
 19 1 66 67
 20 1 67 68
 21 1 68 69
 22 1 69 70
 23 1 70 71
 24 1 71 72
 25 1 72 73
 26 1 73 74
 27 1 74 75
 28 1 75 76
 29 1 76 77
 30 1 77 78
 31 1 78 79
 32 1 79 80
 33 1 80 81
 34 1 81 82
 35 1 82 83
 36 1 83 84
 37 1 84 85
 38 1 85 86
 39 1 86 87
 40 1 87 88
 41 1 88 89
 42 1 136 137
 43 1 137 138
 44 1 138 139
 45 1 139 140
 46 1 140 141
 47 1 141 142
 48 1 142 143
 49 1 143 144
 50 1 144 145
 51 1 145 146
 52 1 146 147
 53 1 147 148
 54 1 148 149
 55 1 149 150
 56 1 150 151
 57 1 151 152
 58 1 152 153
 59 1 153 154
 60 1 154 155
 61 1 155 156
 62 1 156 157
 63 1 157 158
 64 1 158 159
 65 1 159 160
 66 1 160 161
 67 1 161 162
 68 1 162 163
 69 1 210 211
 70 1 211 212
 71 1 212 213
 72 1 213 214
 73 1 214 215
 74 1 215 216
 75 1 216 217
 76 1 217 218
 77 1 218 219
 78 1 219 220
 79 1 220 221
 80 1 221 222
 81 1 222 223
 82 1 223 224
 83 1 224 225
 84 1 225 226
 85 1 226 227
 86 1 227 228
 87 1 228 229
 88 1 229 230
 89 1 230 231
 90 1 231 232
 91 1 232 233
 92 1 233 234
 93 1 234 235
 94 1 235 236
 95 1 236 237
 96 1 284 285
 97 1 285 286
 98 1 286 287
 99 1 287 288
 100 1 288 289
 101 1 289 290
 102 1 290 291
 103 1 291 292
 104 1 292 293
 105 1 293 294
 106 1 294 295
 107 1 295 296
 108 1 296 297
 109 1 297 298
 110 1 298 299
 111 1 299 300
 112 1 300 301
 113 1 301 302
 114 1 302 303
 115 1 303 304
 116 1 304 305
 117 1 305 306
 118 1 306 307
 119 1 307 308
 120 1 308 309
 121 1 309 310
 122 1 310 311
 123 1 358 359
 124 1 359 360
 125 1 360 361
 126 1 361 362
 127 1 362 363
 128 1 363 364
 129 1 364 365
 130 1 365 366
 131 1 366 367
 132 1 367 368
 133 1 368 369
 134 1 369 370
 135 1 370 371
 136 1 371 372
 137 1 372 373
 138 1 373 374
 139 1 374 375
 140 1 375 376
 141 1 376 377
 142 1 377 378
 143 1 378 379
 144 1 379 380
 145 1 380 381
 146 1 381 382
 147 1 382 383
 148 1 383 384
 149 1 384 385
 150 1 432 433
 151 1 433 434
 152 1 434 435
 153 1 435 436
 154 1 436 437
 155 1 437 438
 156 1 438 439
 157 1 439 440
 158 1 440 441
 159 1 441 442
 160 1 442 443
 161 1 443 444
 162 1 444 445
 163 1 445 446
 164 1 446 447
 165 1 447 448
 166 1 448 449
 167 1 449 450
 168 1 450 451
 169 1 451 452
 170 1 452 453
 171 1 453 454
 172 1 454 455
 173 1 455 456
 174 1 456 457
 175 1 457 458
 176 1 458 459
 177 1 506 507
 178 1 507 508
 179 1 508 509
 180 1 509 510
 181 1 510 511
 182 1 511 512
 183 1 512 513
 184 1 513 514
 185 1 514 515
 186 1 515 516
 187 1 516 517
 188 1 517 518
 189 1 518 519
 190 1 519 520
 191 1 520 521
 192 1 521 522
 193 1 522 523
 194 1 523 524
 195 1 524 525
 196 1 525 526
 197 1 526 527
 198 1 527 528
 199 1 528 529
 200 1 529 530
 201 1 530 531
 202 1 531 532
 203 1 532 533
 204 1 580 581
 205 1 581 582
 206 1 582 583
 207 1 583 584
 208 1 584 585
 209 1 585 586
 210 1 586 587
 211 1 587 588
 212 1 588 589
 213 1 589 590
 214 1 590 591
 215 1 591 592
 216 1 592 593
 217 1 593 594
 218 1 594 595
 219 1 595 596
 220 1 596 597
 221 1 597 598
 222 1 598 599
 223 1 599 600
 224 1 600 601
 225 1 601 602
 226 1 602 603
 227 1 603 604
 228 1 604 605
 229 1 605 606
 230 1 606 607
 231 1 654 655
 232 1 655 656
 233 1 656 657
 234 1 657 658
 235 1 658 659
 236 1 659 660
 237 1 660 661
 238 1 661 662
 239 1 662 663
 240 1 663 664
 241 1 664 665
 242 1 665 666
 243 1 666 667
 244 1 667 668
 245 1 668 669
 246 1 669 670
 247 1 670 671
 248 1 671 672
 249 1 672 673
 250 1 673 674
 251 1 674 675
 252 1 675 676
 253 1 676 677
 254 1 677 678
 255 1 678 679
 256 1 679 680
 257 1 680 681
 258 1 728 729
 259 1 729 730
 260 1 730 731
 261 1 731 732
 262 1 732 733
 263 1 733 734
 264 1 734 735
 265 1 735 736
 266 1 736 737
 267 1 737 738
 268 1 738 739
 269 1 739 740
 270 1 740 741
 271 1 741 742

Angles

 1 1 1 2 3
 2 1 2 3 4
 3 1 3 4 5
 4 1 4 5 6
 5 1 5 6 7
 6 1 6 7 8
 7 1 7 8 9
 8 1 8 9 10
 9 1 9 10 11
 10 1 10 11 12
 11 1 11 12 13
 12 1 12 13 14
 13 1 13 14 15
 14 1 14 15 16
 15 1 61 62 63
 16 1 62 63 64
 17 1 63 64 65
 18 1 64 65 66
 19 1 65 66 67
 20 1 66 67 68
 21 1 67 68 69
 22 1 68 69 70
 23 1 69 70 71
 24 1 70 71 72
 25 1 71 72 73
 26 1 72 73 74
 27 1 73 74 75
 28 1 74 75 76
 29 1 75 76 77
 30 1 76 77 78
 31 1 77 78 79
 32 1 78 79 80
 33 1 79 80 81
 34 1 80 81 82
 35 1 81 82 83
 36 1 82 83 84
 37 1 83 84 85
 38 1 84 85 86
 39 1 85 86 87
 40 1 86 87 88
 41 1 87 88 89
 42 1 88 89 90
 43 1 135 136 137
 44 1 136 137 138
 45 1 137 138 139
 46 1 138 139 140
 47 1 139 140 141
 48 1 140 141 142
 49 1 141 142 143
 50 1 142 143 144
 51 1 143 144 145
 52 1 144 145 146
 53 1 145 146 147
 54 1 146 147 148
 55 1 147 148 149
 56 1 148 149 150
 57 1 149 150 151
 58 1 150 151 152
 59 1 151 152 153
 60 1 152 153 154
 61 1 153 154 155
 62 1 154 155 156
 63 1 155 156 157
 64 1 156 157 158
 65 1 157 158 159
 66 1 158 159 160
 67 1 159 160 161
 68 1 160 161 162
 69 1 161 162 163
 70 1 162 163 164
 71 1 209 210 211
 72 1 210 211 212
 73 1 211 212 213
 74 1 212 213 214
 75 1 213 214 215
 76 1 214 215 216
 77 1 215 216 217
 78 1 216 217 218
 79 1 217 218 219
 80 1 218 219 220
 81 1 219 220 221
 82 1 220 221 222
 83 1 221 222 223
 84 1 222 223 224
 85 1 223 224 225
 86 1 224 225 226
 87 1 225 226 227
 88 1 226 227 228
 89 1 227 228 229
 90 1 228 229 230
 91 1 229 230 231
 92 1 230 231 232
 93 1 231 232 233
 94 1 232 233 234
 95 1 233 234 235
 96 1 234 235 236
 97 1 235 236 237
 98 1 236 237 238
 99 1 283 284 285
 100 1 284 285 286
 101 1 285 286 287
 102 1 286 287 288
 103 1 287 288 289
 104 1 288 289 290
 105 1 289 290 291
 106 1 290 291 292
 107 1 291 292 293
 108 1 292 293 294
 109 1 293 294 295
 110 1 294 295 296
 111 1 295 296 297
 112 1 296 297 298
 113 1 297 298 299
 114 1 298 299 300
 115 1 299 300 301
 116 1 300 301 302
 117 1 301 302 303
 118 1 302 303 304
 119 1 303 304 305
 120 1 304 305 306
 121 1 305 306 307
 122 1 306 307 308
 123 1 307 308 309
 124 1 308 309 310
 125 1 309 310 311
 126 1 310 311 312
 127 1 357 358 359
 128 1 358 359 360
 129 1 359 360 361
 130 1 360 361 362
 131 1 361 362 363
 132 1 362 363 364
 133 1 363 364 365
 134 1 364 365 366
 135 1 365 366 367
 136 1 366 367 368
 137 1 367 368 369
 138 1 368 369 370
 139 1 369 370 371
 140 1 370 371 372
 141 1 371 372 373
 142 1 372 373 374
 143 1 373 374 375
 144 1 374 375 376
 145 1 375 376 377
 146 1 376 377 378
 147 1 377 378 379
 148 1 378 379 380
 149 1 379 380 381
 150 1 380 381 382
 151 1 381 382 383
 152 1 382 383 384
 153 1 383 384 385
 154 1 384 385 386
 155 1 431 432 433
 156 1 432 433 434
 157 1 433 434 435
 158 1 434 435 436
 159 1 435 436 437
 160 1 436 437 438
 161 1 437 438 439
 162 1 438 439 440
 163 1 439 440 441
 164 1 440 441 442
 165 1 441 442 443
 166 1 442 443 444
 167 1 443 444 445
 168 1 444 445 446
 169 1 445 446 447
 170 1 446 447 448
 171 1 447 448 449
 172 1 448 449 450
 173 1 449 450 451
 174 1 450 451 452
 175 1 451 452 453
 176 1 452 453 454
 177 1 453 454 455
 178 1 454 455 456
 179 1 455 456 457
 180 1 456 457 458
 181 1 457 458 459
 182 1 458 459 460
 183 1 505 506 507
 184 1 506 507 508
 185 1 507 508 509
 186 1 508 509 510
 187 1 509 510 511
 188 1 510 511 512
 189 1 511 512 513
 190 1 512 513 514
 191 1 513 514 515
 192 1 514 515 516
 193 1 515 516 517
 194 1 516 517 518
 195 1 517 518 519
 196 1 518 519 520
 197 1 519 520 521
 198 1 520 521 522
 199 1 521 522 523
 200 1 522 523 524
 201 1 523 524 525
 202 1 524 525 526
 203 1 525 526 527
 204 1 526 527 528
 205 1 527 528 529
 206 1 528 529 530
 207 1 529 530 531
 208 1 530 531 532
 209 1 531 532 533
 210 1 532 533 534
 211 1 579 580 581
 212 1 580 581 582
 213 1 581 582 583
 214 1 582 583 584
 215 1 583 584 585
 216 1 584 585 586
 217 1 585 586 587
 218 1 586 587 588
 219 1 587 588 589
 220 1 588 589 590
 221 1 589 590 591
 222 1 590 591 592
 223 1 591 592 593
 224 1 592 593 594
 225 1 593 594 595
 226 1 594 595 596
 227 1 595 596 597
 228 1 596 597 598
 229 1 597 598 599
 230 1 598 599 600
 231 1 599 600 601
 232 1 600 601 602
 233 1 601 602 603
 234 1 602 603 604
 235 1 603 604 605
 236 1 604 605 606
 237 1 605 606 607
 238 1 606 607 608
 239 1 653 654 655
 240 1 654 655 656
 241 1 655 656 657
 242 1 656 657 658
 243 1 657 658 659
 244 1 658 659 660
 245 1 659 660 661
 246 1 660 661 662
 247 1 661 662 663
 248 1 662 663 664
 249 1 663 664 665
 250 1 664 665 666
 251 1 665 666 667
 252 1 666 667 668
 253 1 667 668 669
 254 1 668 669 670
 255 1 669 670 671
 256 1 670 671 672
 257 1 671 672 673
 258 1 672 673 674
 259 1 673 674 675
 260 1 674 675 676
 261 1 675 676 677
 262 1 676 677 678
 263 1 677 678 679
 264 1 678 679 680
 265 1 679 680 681
 266 1 680 681 682
 267 1 727 728 729
 268 1 728 729 730
 269 1 729 730 731
 270 1 730 731 732
 271 1 731 732 733
 272 1 732 733 734
 273 1 733 734 735
 274 1 734 735 736
 275 1 735 736 737
 276 1 736 737 738
 277 1 737 738 739
 278 1 738 739 740
 279 1 739 740 741
 280 1 740 741 742
 281 2 1 2 3
 282 2 2 3 4
 283 2 3 4 5
 284 2 4 5 6
 285 2 5 6 7
 286 2 6 7 8
 287 2 7 8 9
 288 2 8 9 10
 289 2 9 10 11
 290 2 10 11 12
 291 2 11 12 13
 292 2 12 13 14
 293 2 13 14 15
 294 2 14 15 16
 295 2 62 63 64
 296 2 63 64 65
 297 2 64 65 66
 298 2 65 66 67
 299 2 66 67 68
 300 2 67 68 69
 301 2 68 69 70
 302 2 69 70 71
 303 2 70 71 72
 304 2 71 72 73
 305 2 72 73 74
 306 2 73 74 75
 307 2 74 75 76
 308 2 75 76 77
 309 2 76 77 78
 310 2 77 78 79
 311 2 78 79 80
 312 2 79 80 81
 313 2 80 81 82
 314 2 81 82 83
 315 2 82 83 84
 316 2 83 84 85
 317 2 84 85 86
 318 2 85 86 87
 319 2 86 87 88
 320 2 87 88 89
 321 2 88 89 90
 322 2 136 137 138
 323 2 137 138 139
 324 2 138 139 140
 325 2 139 140 141
 326 2 140 141 142
 327 2 141 142 143
 328 2 142 143 144
 329 2 143 144 145
 330 2 144 145 146
 331 2 145 146 147
 332 2 146 147 148
 333 2 147 148 149
 334 2 148 149 150
 335 2 149 150 151
 336 2 150 151 152
 337 2 151 152 153
 338 2 152 153 154
 339 2 153 154 155
 340 2 154 155 156
 341 2 155 156 157
 342 2 156 157 158
 343 2 157 158 159
 344 2 158 159 160
 345 2 159 160 161
 346 2 160 161 162
 347 2 161 162 163
 348 2 162 163 164
 349 2 210 211 212
 350 2 211 212 213
 351 2 212 213 214
 352 2 213 214 215
 353 2 214 215 216
 354 2 215 216 217
 355 2 216 217 218
 356 2 217 218 219
 357 2 218 219 220
 358 2 219 220 221
 359 2 220 221 222
 360 2 221 222 223
 361 2 222 223 224
 362 2 223 224 225
 363 2 224 225 226
 364 2 225 226 227
 365 2 226 227 228
 366 2 227 228 229
 367 2 228 229 230
 368 2 229 230 231
 369 2 230 231 232
 370 2 231 232 233
 371 2 232 233 234
 372 2 233 234 235
 373 2 234 235 236
 374 2 235 236 237
 375 2 236 237 238
 376 2 284 285 286
 377 2 285 286 287
 378 2 286 287 288
 379 2 287 288 289
 380 2 288 289 290
 381 2 289 290 291
 382 2 290 291 292
 383 2 291 292 293
 384 2 292 293 294
 385 2 293 294 295
 386 2 294 295 296
 387 2 295 296 297
 388 2 296 297 298
 389 2 297 298 299
 390 2 298 299 300
 391 2 299 300 301
 392 2 300 301 302
 393 2 301 302 303
 394 2 302 303 304
 395 2 303 304 305
 396 2 304 305 306
 397 2 305 306 307
 398 2 306 307 308
 399 2 307 308 309
 400 2 308 309 310
 401 2 309 310 311
 402 2 310 311 312
 403 2 358 359 360
 404 2 359 360 361
 405 2 360 361 362
 406 2 361 362 363
 407 2 362 363 364
 408 2 363 364 365
 409 2 364 365 366
 410 2 365 366 367
 411 2 366 367 368
 412 2 367 368 369
 413 2 368 369 370
 414 2 369 370 371
 415 2 370 371 372
 416 2 371 372 373
 417 2 372 373 374
 418 2 373 374 375
 419 2 374 375 376
 420 2 375 376 377
 421 2 376 377 378
 422 2 377 378 379
 423 2 378 379 380
 424 2 379 380 381
 425 2 380 381 382
 426 2 381 382 383
 427 2 382 383 384
 428 2 383 384 385
 429 2 384 385 386
 430 2 432 433 434
 431 2 433 434 435
 432 2 434 435 436
 433 2 435 436 437
 434 2 436 437 438
 435 2 437 438 439
 436 2 438 439 440
 437 2 439 440 441
 438 2 440 441 442
 439 2 441 442 443
 440 2 442 443 444
 441 2 443 444 445
 442 2 444 445 446
 443 2 445 446 447
 444 2 446 447 448
 445 2 447 448 449
 446 2 448 449 450
 447 2 449 450 451
 448 2 450 451 452
 449 2 451 452 453
 450 2 452 453 454
 451 2 453 454 455
 452 2 454 455 456
 453 2 455 456 457
 454 2 456 457 458
 455 2 457 458 459
 456 2 458 459 460
 457 2 506 507 508
 458 2 507 508 509
 459 2 508 509 510
 460 2 509 510 511
 461 2 510 511 512
 462 2 511 512 513
 463 2 512 513 514
 464 2 513 514 515
 465 2 514 515 516
 466 2 515 516 517
 467 2 516 517 518
 468 2 517 518 519
 469 2 518 519 520
 470 2 519 520 521
 471 2 520 521 522
 472 2 521 522 523
 473 2 522 523 524
 474 2 523 524 525
 475 2 524 525 526
 476 2 525 526 527
 477 2 526 527 528
 478 2 527 528 529
 479 2 528 529 530
 480 2 529 530 531
 481 2 530 531 532
 482 2 531 532 533
 483 2 532 533 534
 484 2 580 581 582
 485 2 581 582 583
 486 2 582 583 584
 487 2 583 584 585
 488 2 584 585 586
 489 2 585 586 587
 490 2 586 587 588
 491 2 587 588 589
 492 2 588 589 590
 493 2 589 590 591
 494 2 590 591 592
 495 2 591 592 593
 496 2 592 593 594
 497 2 593 594 595
 498 2 594 595 596
 499 2 595 596 597
 500 2 596 597 598
 501 2 597 598 599
 502 2 598 599 600
 503 2 599 600 601
 504 2 600 601 602
 505 2 601 602 603
 506 2 602 603 604
 507 2 603 604 605
 508 2 604 605 606
 509 2 605 606 607
 510 2 606 607 608
 511 2 654 655 656
 512 2 655 656 657
 513 2 656 657 658
 514 2 657 658 659
 515 2 658 659 660
 516 2 659 660 661
 517 2 660 661 662
 518 2 661 662 663
 519 2 662 663 664
 520 2 663 664 665
 521 2 664 665 666
 522 2 665 666 667
 523 2 666 667 668
 524 2 667 668 669
 525 2 668 669 670
 526 2 669 670 671
 527 2 670 671 672
 528 2 671 672 673
 529 2 672 673 674
 530 2 673 674 675
 531 2 674 675 676
 532 2 675 676 677
 533 2 676 677 678
 534 2 677 678 679
 535 2 678 679 680
 536 2 679 680 681
 537 2 680 681 682
 538 2 728 729 730
 539 2 729 730 731
 540 2 730 731 732
 541 2 731 732 733
 542 2 732 733 734
 543 2 733 734 735
 544 2 734 735 736
 545 2 735 736 737
 546 2 736 737 738
 547 2 737 738 739
 548 2 738 739 740
 549 2 739 740 741
 550 2 740 741 742
 551 3 741 742 740
