LAMMPS Description

74 atoms
26 bonds
26 angles

23 atom types
1 bond types
1 angle types

-50 50 xlo xhi
-50 50 ylo yhi
-50 50 zlo zhi
Masses

1 1.0
2 1.0
3 1.0
4 1.0
5 1.0
6 1.0
7 1.0
8 1.0
9 1.0
10 1.0
11 1.0
12 1.0
13 1.0
14 1.0
15 1.0
16 1.0
17 1.0
18 1.0
19 1.0
20 1.0
21 1.0
22 1.0
23 1.0

Atoms

 1 0 1 0 0 0 0 0 0
 2 0 1 -0.379105 0.296426 -0.876591 0 0 0
 3 0 1 -0.190339 -0.304516 -1.65327 0 0 0
 4 0 1 -0.101664 -0.0452436 -2.615 0 0 0
 5 0 1 0.546148 2.25976 -1.79738 0 0 0
 6 0 1 0.557384 1.69876 -2.18965 0 0 0
 7 0 1 0.592256 1.18416 -2.61613 0 0 0
 8 0 1 0.694776 0.518356 -2.67207 0 0 0
 9 0 1 0.758096 -0.155164 -2.59135 0 0 0
 10 0 1 0.763056 -0.732924 -2.24367 0 0 0
 11 0 1 0.731816 -1.15728 -1.72846 0 0 0
 12 0 1 0.674096 -1.18677 -1.05444 0 0 0
 13 0 1 0.620296 -1.02801 -0.399238 0 0 0
 14 1 2 0.614496 -0.583956 0.0972818 0 0 0
 15 1 2 0.619296 -0.0679636 0.554562 0 0 0
 16 1 2 0.763736 0.568996 0.623122 0 0 0
 17 1 2 0.823056 1.21616 0.481282 0 0 0
 18 1 2 0.987736 1.69212 0.0387218 0 0 0
 19 1 5 0.546148 2.25976 -1.79738 0 0 0
 20 1 6 0.557384 1.69876 -2.18965 0 0 0
 21 1 7 0.592256 1.18416 -2.61613 0 0 0
 22 1 8 0.694776 0.518356 -2.67207 0 0 0
 23 1 9 0.758096 -0.155164 -2.59135 0 0 0
 24 1 10 0.763056 -0.732924 -2.24367 0 0 0
 25 1 11 0.731816 -1.15728 -1.72846 0 0 0
 26 1 12 0.674096 -1.18677 -1.05444 0 0 0
 27 1 13 0.620296 -1.02801 -0.399238 0 0 0
 28 1 3 0.898336 0.954756 -1.615 0 0 0
 29 1 3 0.944656 0.709596 -1.72286 0 0 0
 30 1 3 1.00478 0.352076 -1.73598 0 0 0
 31 1 3 1.0437 0.0787964 -1.662 0 0 0
 32 1 3 1.05494 -0.130044 -1.50116 0 0 0
 33 1 3 1.04174 -0.294244 -1.31568 0 0 0
 34 1 3 1.43302 -0.349604 -1.04592 0 0 0
 35 1 3 1.41554 -0.277964 -0.811518 0 0 0
 36 1 3 1.41946 -0.153564 -0.582358 0 0 0
 37 1 3 1.45586 0.0548764 -0.382718 0 0 0
 38 1 3 1.50922 0.388796 -0.239918 0 0 0
 39 1 3 1.5489 0.656996 -0.233278 0 0 0
 40 1 2 1.20742 2.02488 -0.652558 0 0 0
 41 1 4 0.823136 0.905316 -0.917638 0 0 0
 42 1 4 1.6227 0.911996 -0.891758 0 0 0
 43 1 4 0.817616 0.334916 -0.626278 0 0 0
 44 1 4 1.61718 0.341596 -0.600398 0 0 0
 45 1 4 0.841976 0.515836 -1.42584 0 0 0
 46 1 4 1.64154 0.522516 -1.39996 0 0 0
 47 1 23 1.22958 0.259796 -0.997398 0 0 0
 48 1 22 1.87162 -0.613996 -2.1804 0 0 0
 49 1 21 1.83142 -1.02593 -1.66547 0 0 0
 50 1 20 1.76966 -1.29978 -1.04636 0 0 0
 51 1 19 1.72774 -1.1343 -0.400198 0 0 0
 52 1 18 1.71602 -0.755724 0.158882 0 0 0
 53 1 17 1.76458 -0.186204 0.537362 0 0 0
 54 1 16 1.85302 0.449396 0.770442 0 0 0
 55 1 15 1.87446 1.09144 0.606522 0 0 0
 56 1 14 1.81114 1.76616 0.517842 0 0 0
 57 1 2 1.43226 2.017 -1.41468 0 0 0
 58 1 2 1.6023 1.78812 -2.02365 0 0 0
 59 1 2 1.6741 1.2602 -2.42213 0 0 0
 60 1 2 1.83206 0.656596 -2.63994 0 0 0
 61 1 2 1.8501 0.00675642 -2.44355 0 0 0
 62 0 1 1.87162 -0.613996 -2.1804 0 0 0
 63 0 1 1.83142 -1.02593 -1.66547 0 0 0
 64 0 1 1.76966 -1.29978 -1.04636 0 0 0
 65 0 1 1.72774 -1.1343 -0.400198 0 0 0
 66 0 1 1.71602 -0.755724 0.158882 0 0 0
 67 0 1 1.76458 -0.186204 0.537362 0 0 0
 68 0 1 1.85302 0.449396 0.770442 0 0 0
 69 0 1 1.87446 1.09144 0.606522 0 0 0
 70 0 1 1.81114 1.76616 0.517842 0 0 0
 71 0 1 1.91045 0.902872 1.01269 0 0 0
 72 0 1 1.18804 0.648056 1.65549 0 0 0
 73 0 1 0.500074 -0.074213 1.72644 0 0 0
 74 0 1 -0.407823 -0.150839 2.13857 0 0 0


Velocities

 1 0 0 0
 2 0 0 0
 3 0 0 0
 4 0 0 0
 5 0 0 0
 6 0 0 0
 7 0 0 0
 8 0 0 0
 9 0 0 0
 10 0 0 0
 11 0 0 0
 12 0 0 0
 13 0 0 0
 14 0 0 0
 15 0 0 0
 16 0 0 0
 17 0 0 0
 18 0 0 0
 19 0 0 0
 20 0 0 0
 21 0 0 0
 22 0 0 0
 23 0 0 0
 24 0 0 0
 25 0 0 0
 26 0 0 0
 27 0 0 0
 28 0 0 0
 29 0 0 0
 30 0 0 0
 31 0 0 0
 32 0 0 0
 33 0 0 0
 34 0 0 0
 35 0 0 0
 36 0 0 0
 37 0 0 0
 38 0 0 0
 39 0 0 0
 40 0 0 0
 41 0 0 0
 42 0 0 0
 43 0 0 0
 44 0 0 0
 45 0 0 0
 46 0 0 0
 47 0 0 0
 48 0 0 0
 49 0 0 0
 50 0 0 0
 51 0 0 0
 52 0 0 0
 53 0 0 0
 54 0 0 0
 55 0 0 0
 56 0 0 0
 57 0 0 0
 58 0 0 0
 59 0 0 0
 60 0 0 0
 61 0 0 0
 62 0 0 0
 63 0 0 0
 64 0 0 0
 65 0 0 0
 66 0 0 0
 67 0 0 0
 68 0 0 0
 69 0 0 0
 70 0 0 0
 71 0 0 0
 72 0 0 0
 73 0 0 0
 74 0 0 0

Bonds

 1 1 1 2
 2 1 2 3
 3 1 3 4
 4 1 4 5
 5 1 5 6
 6 1 6 7
 7 1 7 8
 8 1 8 9
 9 1 9 10
 10 1 10 11
 11 1 11 12
 12 1 12 13
 13 1 13 14
 14 1 61 62
 15 1 62 63
 16 1 63 64
 17 1 64 65
 18 1 65 66
 19 1 66 67
 20 1 67 68
 21 1 68 69
 22 1 69 70
 23 1 70 71
 24 1 71 72
 25 1 72 73
 26 1 73 74

Angles

 1 1 1 2 3
 2 1 2 3 4
 3 1 3 4 5
 4 1 4 5 6
 5 1 5 6 7
 6 1 6 7 8
 7 1 7 8 9
 8 1 8 9 10
 9 1 9 10 11
 10 1 10 11 12
 11 1 11 12 13
 12 1 12 13 14
 13 1 13 14 15
 14 1 60 61 62
 15 1 61 62 63
 16 1 62 63 64
 17 1 63 64 65
 18 1 64 65 66
 19 1 65 66 67
 20 1 66 67 68
 21 1 67 68 69
 22 1 68 69 70
 23 1 69 70 71
 24 1 70 71 72
 25 1 71 72 73
 26 1 72 73 74
