LAMMPS data file via write_data, version 2 Jun 2022, timestep = 10000000

742 atoms
23 atom types
271 bonds
1 bond types
551 angles
3 angle types
742 ellipsoids

-50 50 xlo xhi
-50 50 ylo yhi
-50 50 zlo zhi

Masses

1 1
2 1
3 1
4 1
5 1
6 1
7 1
8 1
9 1
10 1
11 1
12 1
13 1
14 1
15 1
16 1
17 1
18 1
19 1
20 1
21 1
22 1
23 1

Atoms # hybrid

643 20 32.89810325071639 -10.677880381576603 32.71780077861445 9 1 1 0 0 0
657 1 32.894106865538326 -10.684620257158972 32.68765648788563 0 1 1 0 0 0
642 21 32.80172910619675 -10.050887372105073 32.962379947682344 9 1 1 0 0 0
656 1 32.77763621569147 -10.10608175444783 32.93120669013933 0 1 1 0 0 0
655 1 32.882697364205995 -9.500437737211945 33.25381133436192 0 1 1 0 0 0
641 22 32.86880023348901 -9.462051493814245 33.25426716429386 9 1 1 0 0 0
658 1 33.38348678391524 -11.195660687959572 32.61654637872542 0 1 1 0 0 0
644 19 33.37051121484398 -11.143528451160977 32.63664019014213 9 1 1 0 0 0
659 1 33.985879146431714 -11.473369978452395 32.638775154409316 0 1 1 0 0 0
645 18 33.97614437134354 -11.442139127435832 32.64626620505275 9 1 1 0 0 0
660 1 34.65288835515294 -11.507621956374276 32.72462577834921 0 1 1 0 0 0
646 17 34.65343161135677 -11.494322948556567 32.738657133874185 9 1 1 0 0 0
647 16 35.3151877833003 -11.386782042767257 32.86759831766226 9 1 1 0 0 0
661 1 35.253301730293835 -11.37868188144761 32.88902114537723 0 1 1 0 0 0
742 1 38.84871283088642 -8.72108988841625 33.094424357150466 0 1 1 0 0 0
460 2 33.23130821585567 -12.312642057622563 36.582788675657184 7 1 1 0 0 0
620 13 33.20893758774342 -11.619260000697015 33.6292170918488 9 1 1 0 0 0
606 1 33.20373717480766 -11.608263120491507 33.63031693531525 0 1 1 0 0 0
605 1 32.70065022212226 -11.143949560415194 33.71419900769666 0 1 1 0 0 0
619 12 32.7397626135575 -11.138207461869175 33.705719976663275 9 1 1 0 0 0
626 3 33.407271943587524 -10.407651847593163 33.84972358659257 9 1 1 0 0 0
618 11 32.41438026537043 -10.566173915393685 33.865027538614804 9 1 1 0 0 0
604 1 32.40995546938045 -10.557891010937515 33.90432533499332 0 1 1 0 0 0
625 3 33.44404094933434 -10.189960529240139 33.96271725955753 9 1 1 0 0 0
624 3 33.52478866310089 -9.985436224823504 34.10858710299465 9 1 1 0 0 0
617 10 32.489320122710964 -9.976317786770936 34.17005656167322 9 1 1 0 0 0
603 1 32.48757171237598 -9.946977440725632 34.1879690809702 0 1 1 0 0 0
654 2 33.22711231624002 -9.01891934382937 33.61518373568455 9 1 1 0 0 0
472 13 31.926088795387642 -12.0821695415352 36.30947005275032 7 1 1 0 0 0
458 1 31.93319201393737 -12.104763536741508 36.25591204725501 0 1 1 0 0 0
511 1 32.76059750207863 -12.013021976347769 35.32824325796428 0 1 1 0 0 0
497 18 32.747185139505525 -12.000053621916239 35.35797419712055 7 1 1 0 0 0
482 3 32.95128374877104 -11.236585574002872 35.985275656975574 7 1 1 0 0 0
510 1 32.12699171309222 -11.7782967425371 35.285543072014434 0 1 1 0 0 0
496 19 32.12208822274937 -11.76327249037126 35.26184299387067 7 1 1 0 0 0
481 3 32.66335543993945 -11.204667453130604 35.958280810090265 7 1 1 0 0 0
489 4 33.070385234762796 -10.860539481165045 35.980426894663715 7 1 1 0 0 0
471 12 31.415800724345285 -11.639658767645749 36.27516040122734 7 1 1 0 0 0
457 1 31.41036184403191 -11.658566506549887 36.298675785154785 0 1 1 0 0 0
480 3 32.42791847052472 -11.094280737928985 35.93924461982526 7 1 1 0 0 0
492 23 32.667284193181565 -10.726940206978503 36.346752957363265 7 1 1 0 0 0
479 3 32.233867174032405 -10.944453365635072 35.92257871327471 7 1 1 0 0 0
495 20 31.60942500198965 -11.335313933567107 35.234458692776556 7 1 1 0 0 0
509 1 31.5961043310241 -11.361448024369235 35.246019407964496 0 1 1 0 0 0
602 1 32.7590999770195 -9.45771459756481 34.51518638240831 0 1 1 0 0 0
616 9 32.77099190339695 -9.475518691521835 34.52292716368317 9 1 1 0 0 0
615 8 33.26082612031837 -9.175356939547433 34.88920168393353 9 1 1 0 0 0
601 1 33.23961116335508 -9.170678396361591 34.91303042583466 0 1 1 0 0 0
478 3 32.010744531722224 -10.8379443237779 36.332267094964 7 1 1 0 0 0
477 3 32.02160164895421 -10.602151271031778 36.40862080660972 7 1 1 0 0 0
470 11 31.035117327081785 -11.081144486670679 36.31537108506667 7 1 1 0 0 0
456 1 31.030155758933383 -11.09957430113576 36.3160918379242 0 1 1 0 0 0
491 4 32.7165021498806 -10.135297473558381 36.126965248131064 7 1 1 0 0 0
494 21 31.445778736852425 -10.688153323030607 35.3628703450512 7 1 1 0 0 0
508 1 31.45654305985406 -10.712054894628238 35.32063998661836 0 1 1 0 0 0
507 1 31.45714293374429 -10.052807475840766 35.5217940254064 0 1 1 0 0 0
493 22 31.44413646036817 -10.055756631607537 35.553923244729646 7 1 1 0 0 0
476 3 32.07492287604929 -10.370061286573439 36.522133903123745 7 1 1 0 0 0
475 3 32.223069959672266 -10.180474795961759 36.67634341188229 7 1 1 0 0 0
455 1 31.047883399042345 -10.458409506933117 36.50793559938427 0 1 1 0 0 0
469 10 31.040330303124616 -10.444920943923274 36.51953949074874 7 1 1 0 0 0
506 2 31.738448564325996 -9.528646464283277 35.85491923303565 7 1 1 0 0 0
505 2 32.09664043520847 -9.036749568929912 36.15645698121228 7 1 1 0 0 0
468 9 31.254438968031685 -9.869474326028106 36.79836842964269 7 1 1 0 0 0
454 1 31.267014849734476 -9.85953909018118 36.788558929216244 0 1 1 0 0 0
504 2 32.64179571330153 -8.938404483747734 36.51682868790939 7 1 1 0 0 0
503 2 33.26383141443191 -8.991428699235007 36.74686571860489 7 1 1 0 0 0
459 2 32.562770089149055 -12.233616314763355 36.434097151775845 7 1 1 0 0 0
488 4 32.850274296495556 -11.114541550490278 36.70645011470121 7 1 1 0 0 0
486 4 33.09634817779528 -10.583167933577775 36.96604613584062 7 1 1 0 0 0
490 4 32.49641611263769 -10.389265705965652 36.85289772125693 7 1 1 0 0 0
473 3 32.72047069565623 -9.990034729028899 37.001199566432625 7 1 1 0 0 0
474 3 32.482596244917595 -10.020901013970606 36.87328626087104 7 1 1 0 0 0
467 8 31.690577886301828 -9.470150944763816 37.1366959578913 7 1 1 0 0 0
453 1 31.702712286061985 -9.494462521573816 37.170183480456444 0 1 1 0 0 0
627 3 33.59511454260772 -10.460399265773695 33.412796444532674 9 1 1 0 0 0
512 1 33.38770601297287 -12.067902765862023 35.459173813314194 0 1 1 0 0 0
498 17 33.417761157439294 -11.97461473797523 35.49791067469493 7 1 1 0 0 0
483 3 33.301712854104075 -11.151890565111518 36.05427923662464 7 1 1 0 0 0
623 3 33.69841096682266 -9.837196010000048 34.28049202659906 9 1 1 0 0 0
607 2 33.83546073949611 -11.839737279111281 33.68005804503528 9 1 1 0 0 0
628 3 33.7754175161019 -10.625826817292571 33.39029172174783 9 1 1 0 0 0
629 3 34.00061257046154 -10.75633290016152 33.37360161011955 9 1 1 0 0 0
499 16 34.05757845220575 -11.787764185307896 35.64573446950023 7 1 1 0 0 0
513 1 34.00972118620355 -11.755436348196072 35.65163799484806 0 1 1 0 0 0
484 3 33.515516712270745 -11.00098910550736 36.1254659609655 7 1 1 0 0 0
638 4 33.96176250210411 -10.09407491327731 34.399729260364246 9 1 1 0 0 0
622 3 33.98258311846543 -9.734685639383475 34.4813460585396 9 1 1 0 0 0
662 1 35.77580979401902 -10.981906404153996 33.21511174944644 0 1 1 0 0 0
608 2 34.501766042437644 -11.995855526024698 33.764060106632996 9 1 1 0 0 0
630 3 34.285500021900106 -10.815082170511403 33.373731403011654 9 1 1 0 0 0
636 4 34.23895976898597 -10.80966254330725 34.11052664872084 9 1 1 0 0 0
631 3 34.64564777772232 -10.771437854266289 33.42960069364364 9 1 1 0 0 0
609 2 35.08871586348134 -11.731360118177623 33.893552424569585 9 1 1 0 0 0
637 4 34.437752296234436 -10.454310874173707 33.42184507153572 9 1 1 0 0 0
648 15 35.75375119128274 -10.993639197962484 33.17214258498253 9 1 1 0 0 0
632 3 34.87610541109282 -10.652309570781798 33.50864891497282 9 1 1 0 0 0
649 14 36.24033548530492 -10.686846107245488 33.541182778320945 9 1 1 0 0 0
663 1 36.27600964849222 -10.660814209748956 33.543285468512025 0 1 1 0 0 0
664 1 36.80947035001483 -10.271354361538712 33.73396738428493 0 1 1 0 0 0
635 4 34.74602274120926 -9.996130480199646 33.74628203572569 9 1 1 0 0 0
640 23 34.070877464946896 -10.353276961888334 33.83382687542523 9 1 1 0 0 0
639 4 34.160467561756974 -9.738801484551532 33.71109894581966 9 1 1 0 0 0
487 4 33.31645911606252 -10.329165864252536 36.240022915803124 7 1 1 0 0 0
514 1 34.49304960206072 -11.355430370613483 35.92984066278438 0 1 1 0 0 0
500 15 34.43990321620904 -11.31188256284458 35.904395015064324 7 1 1 0 0 0
516 1 35.48092417947259 -10.767317956580593 36.52859866266969 0 1 1 0 0 0
501 14 34.87196523167715 -10.905740948568225 36.244256357883174 7 1 1 0 0 0
515 1 34.98247099593105 -11.002700076440599 36.184485122658 0 1 1 0 0 0
610 2 35.55186331406214 -11.336086203341086 34.16140413964772 9 1 1 0 0 0
611 2 35.73773457853669 -10.721124266456837 34.353173139296274 9 1 1 0 0 0
665 1 37.34467348579979 -10.017775903246246 34.02148476862125 0 1 1 0 0 0
634 4 34.54721395738488 -10.351490040611711 34.43495504252791 9 1 1 0 0 0
633 2 35.686000554280135 -9.94018788197716 34.50887581791816 9 1 1 0 0 0
621 3 34.22944512658301 -9.7448721598173 34.59467281508724 9 1 1 0 0 0
599 1 34.44674526723142 -9.094268619993281 35.40773376932619 0 1 1 0 0 0
613 6 34.44881746931483 -9.155640856798488 35.37223066938948 9 1 1 0 0 0
600 1 33.81331886656372 -9.007477729128244 35.266126283736284 0 1 1 0 0 0
614 7 33.809084951615816 -9.004868730932271 35.24599073173006 9 1 1 0 0 0
596 1 36.366103378485626 -9.508792530545456 35.82492232183814 0 1 1 0 0 0
595 1 36.94398304576517 -9.419659746981587 36.054116254256634 0 1 1 0 0 0
650 2 35.32031499532392 -9.235102991576381 34.53486926515796 9 1 1 0 0 0
612 5 35.11310135858926 -9.2499883161475 35.5082269978871 9 1 1 0 0 0
598 1 35.12244827655843 -9.194867548034058 35.507257958620144 0 1 1 0 0 0
597 1 35.703071795900755 -9.416416260499993 35.65144029612153 0 1 1 0 0 0
651 2 34.84512361655028 -8.764083975448557 34.468366107449526 9 1 1 0 0 0
502 2 33.768843745729896 -9.400107756184752 36.92039101372822 7 1 1 0 0 0
653 2 33.64567018817881 -8.61552283668233 33.96624949627598 9 1 1 0 0 0
652 2 34.21793484625904 -8.62345149223243 34.29663186192749 9 1 1 0 0 0
594 1 37.42776955718737 -9.082681620344266 36.38839219948919 0 1 1 0 0 0
461 2 33.78430602350988 -11.978394921689947 36.7000389995394 7 1 1 0 0 0
518 1 36.446763607091135 -10.122631468887702 37.2423431542979 0 1 1 0 0 0
517 1 35.95528580852443 -10.452229029106398 36.935798109623185 0 1 1 0 0 0
462 2 34.19355710027164 -11.504126010517306 36.92372230616835 7 1 1 0 0 0
463 2 34.315329716512856 -10.85173261149499 37.0190119931543 7 1 1 0 0 0
485 2 34.190246967325685 -10.06373222278549 37.03641000595618 7 1 1 0 0 0
741 1 38.992416213244454 -8.268706664023576 33.64098265608957 0 1 1 0 0 0
740 1 39.10777174296159 -7.833189169152273 34.167348096650265 0 1 1 0 0 0
666 1 37.943680010484385 -9.76987665721659 34.1843602127881 0 1 1 0 0 0
667 1 38.55903127452736 -9.539479839687937 34.258677154740916 0 1 1 0 0 0
668 1 39.20184048377031 -9.399887375427333 34.42866472847361 0 1 1 0 0 0
669 1 39.73599465698051 -9.257484733106587 34.739812241404934 0 1 1 0 0 0
670 1 40.28439283071252 -9.105301397091493 35.096812878741964 0 1 1 0 0 0
671 1 40.925624002117566 -9.002733893023382 35.413525065038385 0 1 1 0 0 0
686 5 41.435124138139145 -8.808732452977612 35.784607354627305 10 1 1 0 0 0
672 1 41.43734394126373 -8.826214333020369 35.78597780007891 0 1 1 0 0 0
687 6 41.914554210205694 -8.662716956388026 36.25096940363426 10 1 1 0 0 0
673 1 41.942878098346725 -8.673626033754562 36.24050046816209 0 1 1 0 0 0
739 1 39.07167527132422 -7.405699900270328 34.61709234135538 0 1 1 0 0 0
724 2 41.322071567156534 -7.839460751896572 35.58886306817763 10 1 1 0 0 0
707 2 40.54009607723288 -7.809325822986236 35.7274180363969 10 1 1 0 0 0
738 1 39.24092647350571 -7.133782753960004 35.21752274857568 0 1 1 0 0 0
723 14 39.61156233984145 -6.840313174926946 35.71999331909509 10 1 1 0 0 0
737 1 39.48703563679638 -6.805877898500445 35.769952608173085 0 1 1 0 0 0
685 2 39.88926272761296 -7.642874422200169 36.15802772300283 10 1 1 0 0 0
722 15 39.66493360970745 -6.458210408312206 36.284119717429945 10 1 1 0 0 0
736 1 39.64125676306686 -6.434523883507206 36.286567378711375 0 1 1 0 0 0
684 2 39.514864296952965 -7.43855225941874 36.67536918559369 10 1 1 0 0 0
721 16 39.62042685915392 -6.140311251844105 36.86425639880083 10 1 1 0 0 0
708 4 40.90719571352255 -7.709476284352298 36.87916135705067 10 1 1 0 0 0
735 1 39.64331651687241 -6.1097708180042005 36.87699837787472 0 1 1 0 0 0
706 3 40.46956009827422 -6.784589844734294 36.78019185833035 10 1 1 0 0 0
705 3 40.5154653857174 -6.699762907535201 37.03366372128595 10 1 1 0 0 0
709 4 41.069002091749105 -7.029739154935136 36.489481153734005 10 1 1 0 0 0
695 3 41.58170086248805 -7.872693817680652 36.765737370023096 10 1 1 0 0 0
696 3 41.74024929052748 -7.755170727453607 36.952680032970086 10 1 1 0 0 0
711 4 40.89362959057851 -6.693148714621937 37.005376328089156 10 1 1 0 0 0
714 23 41.19659231067032 -7.100156918751706 37.24431546679529 10 1 1 0 0 0
710 4 40.73183780593276 -7.372849965920097 37.39512652989136 10 1 1 0 0 0
704 3 40.70020655382453 -6.636893282981328 37.344555032703404 10 1 1 0 0 0
720 17 39.938175471584856 -5.998265924966546 37.45162040383559 10 1 1 0 0 0
734 1 39.88737582560922 -5.998539220171412 37.49025990350661 0 1 1 0 0 0
683 2 39.48358531586621 -7.156876220539448 37.277143146532055 10 1 1 0 0 0
682 2 39.6312776762547 -7.013222904273741 37.90069133473305 10 1 1 0 0 0
713 4 41.62967459316947 -6.988271512977415 36.7964192165765 10 1 1 0 0 0
703 3 40.92025690614831 -6.632689832460512 37.53474579758409 10 1 1 0 0 0
733 1 40.45458002032828 -5.846937757383804 37.974450632869086 0 1 1 0 0 0
719 18 40.39203882362903 -5.8949000664168505 37.95491037726791 10 1 1 0 0 0
702 3 41.16084528911785 -6.64750306190158 37.63435402120861 10 1 1 0 0 0
701 3 41.40182204830296 -6.66935072129659 37.677188363874215 10 1 1 0 0 0
718 19 40.99766129864216 -5.879226840443835 38.25328645564313 10 1 1 0 0 0
732 1 41.00152804395223 -5.862393839295677 38.33932036629018 0 1 1 0 0 0
725 2 41.985086471887264 -7.771914832199236 35.67750524119444 10 1 1 0 0 0
726 2 42.47874012298306 -7.591382474356086 36.08549498436378 10 1 1 0 0 0
727 2 42.83388849040532 -7.25118377174703 36.52687916335122 10 1 1 0 0 0
728 2 42.76914049336264 -6.886942488509357 37.096374527743535 10 1 1 0 0 0
729 1 42.541952263584506 -6.475191843476322 37.59806465656833 0 1 1 0 0 0
82 1 35.33699418995117 -17.35254436759755 42.396544191335856 0 1 1 0 0 0
227 1 36.560446450090225 -13.022157626965045 40.4163117867536 0 1 1 0 0 0
228 1 37.02238028782147 -13.518148623292431 40.51165450434107 0 1 1 0 0 0
242 5 37.01004666863019 -13.53265065579596 40.55461451960293 4 1 1 0 0 0
243 6 37.48027077368776 -14.025874456324049 40.48913359707248 4 1 1 0 0 0
229 1 37.45409537905564 -14.018903748392818 40.481009833314666 0 1 1 0 0 0
135 2 36.4225551872553 -16.64298482019127 42.03350710081861 2 1 1 0 0 0
134 2 35.836124147734374 -16.397906256128657 42.21449613206751 2 1 1 0 0 0
281 2 38.136809672989 -13.217730524623166 40.69707151343058 4 1 1 0 0 0
244 7 37.95609742621437 -14.48216596300189 40.37372829139295 4 1 1 0 0 0
230 1 37.936150757296545 -14.489066016298692 40.3914556264401 0 1 1 0 0 0
282 2 38.6361102027116 -13.64995960256104 40.61623821828735 4 1 1 0 0 0
231 1 38.45448777266228 -14.88136549766837 40.6255051318658 0 1 1 0 0 0
245 8 38.418164407907696 -14.883837639400134 40.6602370975617 4 1 1 0 0 0
232 1 38.76234672613857 -15.275961165277502 41.04838667004986 0 1 1 0 0 0
246 9 38.8014737787262 -15.275415788443098 41.06509229665739 4 1 1 0 0 0
283 2 39.16899061972007 -14.021405222421887 40.73784321101 4 1 1 0 0 0
284 2 39.460250707814566 -14.392005885829665 41.22673025032368 4 1 1 0 0 0
271 22 39.711807371102374 -14.72026038907605 41.759633611317 4 1 1 0 0 0
285 1 39.70997177746388 -14.704820756468454 41.76549504019045 0 1 1 0 0 0
379 1 40.16545167474165 -12.16791026447442 39.902190605247654 0 1 1 0 0 0
380 1 40.629970000701384 -12.30731838627036 40.36608145495694 0 1 1 0 0 0
214 1 29.309589262575983 -9.130164047779486 41.59282866364627 0 1 1 0 0 0
200 19 29.359242773511735 -9.156914985408616 41.613684912497675 3 1 1 0 0 0
201 18 29.525709599187834 -9.64825572006269 41.18133544364299 3 1 1 0 0 0
215 1 29.464107742617568 -9.637781258911104 41.15846750701713 0 1 1 0 0 0
213 1 29.411450486594116 -8.674588991264931 42.051524313842656 0 1 1 0 0 0
199 20 29.421304724042976 -8.68451376504741 42.08235223981792 3 1 1 0 0 0
164 2 29.70356849094473 -10.933602451662109 41.5668755670526 3 1 1 0 0 0
176 13 29.12975948084664 -9.97551506204675 42.33128729001299 3 1 1 0 0 0
163 2 29.3765141668158 -10.45434821164206 41.939360354064604 3 1 1 0 0 0
162 1 29.144746605138867 -9.93146614083722 42.3384197884402 0 1 1 0 0 0
216 1 29.910803551902514 -10.074918897302332 40.85095722403019 0 1 1 0 0 0
202 17 29.93837049364233 -10.074151129438189 40.83738652652029 3 1 1 0 0 0
185 3 30.212146043318135 -9.68243203445144 41.907731676751034 3 1 1 0 0 0
184 3 30.169189178369685 -9.500169720553378 42.089225998112134 3 1 1 0 0 0
218 1 31.099610779649826 -10.556821586783887 40.67219088057905 0 1 1 0 0 0
364 1 30.86929721576071 -10.09671751199417 38.11765157370939 0 1 1 0 0 0
350 17 30.898100262410416 -10.127888684201896 38.16450442131002 5 1 1 0 0 0
365 1 31.508602276032562 -10.336298498859012 38.11935701968071 0 1 1 0 0 0
351 16 31.51740936285813 -10.40965850582955 38.10778382784907 5 1 1 0 0 0
366 1 32.142609329800095 -10.45668118315005 38.16232035416494 0 1 1 0 0 0
352 15 32.14934020557152 -10.380044971055051 38.30608081750526 5 1 1 0 0 0
204 15 31.105156148470307 -10.578619739908483 40.65480763743989 3 1 1 0 0 0
217 1 30.472356518269994 -10.37123956942314 40.634943640662314 0 1 1 0 0 0
203 16 30.467436309734175 -10.416204633007332 40.57435277100752 3 1 1 0 0 0
313 2 31.340261584595588 -10.809258071416252 39.12341887679163 5 1 1 0 0 0
312 2 30.693828834866327 -10.695535346887846 39.14527026769263 5 1 1 0 0 0
311 2 30.226466424349244 -10.203773354093789 39.267930176946486 5 1 1 0 0 0
335 3 31.42786856570277 -9.68270798164155 38.88630953136025 5 1 1 0 0 0
336 3 31.69562200192722 -9.721078515617474 38.9059603103118 5 1 1 0 0 0
334 3 31.10187881100926 -9.52026774449485 38.93202403223894 5 1 1 0 0 0
314 2 31.98619405925118 -10.782193405193057 39.27988264265306 5 1 1 0 0 0
340 4 31.209343626418566 -9.658180137544669 39.64932425898665 5 1 1 0 0 0
338 4 31.776211637806757 -9.511911319379552 39.909257981497554 5 1 1 0 0 0
339 4 32.00201920017688 -9.165382225095593 39.224419223839085 5 1 1 0 0 0
315 2 32.51601391224215 -10.413368935471716 39.461022417168195 5 1 1 0 0 0
367 1 32.767228947465554 -10.507279267249185 38.4721216076128 0 1 1 0 0 0
353 14 32.784463013758185 -10.460966904986536 38.54522997081733 5 1 1 0 0 0
337 2 32.93937664444253 -9.776523063237324 39.689242332166536 5 1 1 0 0 0
363 1 30.339721720383572 -9.7375547980732 38.22513382716969 0 1 1 0 0 0
349 18 30.36236518739747 -9.714389703629607 38.27358403840941 5 1 1 0 0 0
310 1 29.828171269380082 -9.683624431767884 39.405956134174374 0 1 1 0 0 0
324 13 29.83349983021362 -9.686685104912423 39.41634736986729 5 1 1 0 0 0
333 3 30.904502330690047 -9.324577871960052 39.01804892633428 5 1 1 0 0 0
341 4 31.435129074499635 -9.311688083933008 38.96455287303451 5 1 1 0 0 0
205 14 31.72432488103412 -10.85745641677382 40.73226943924578 3 1 1 0 0 0
219 1 31.723818435318258 -10.773780334345696 40.70162793255379 0 1 1 0 0 0
187 3 30.62346794854619 -10.047243556013678 41.565382111518346 3 1 1 0 0 0
186 3 30.349784745908813 -9.860584201374117 41.723488044106894 3 1 1 0 0 0
220 1 32.29396256562343 -11.010538313108873 40.59990149315503 0 1 1 0 0 0
165 2 30.301092591358113 -11.142175579067816 41.39156040755583 3 1 1 0 0 0
188 3 30.875706307739115 -10.137002962149909 41.52215143766593 3 1 1 0 0 0
193 4 30.723753787214935 -9.743780388286105 41.76954353881364 3 1 1 0 0 0
221 1 32.913604833795425 -11.298523967932898 40.480475006346325 0 1 1 0 0 0
222 1 33.524974975307465 -11.542626769271887 40.307509015910746 0 1 1 0 0 0
166 2 30.947751077107075 -11.293077304686957 41.43033720492262 3 1 1 0 0 0
344 23 31.27453690420255 -9.13190697896241 39.470935049986686 5 1 1 0 0 0
342 4 31.439916465644195 -8.989129298664908 40.063923336369506 5 1 1 0 0 0
325 3 31.88831285550743 -8.882860067682385 40.202608426065574 5 1 1 0 0 0
362 1 29.970547018013757 -9.184261429960753 38.46143303237733 0 1 1 0 0 0
348 19 30.037753772948246 -9.152924522405138 38.46183067525014 5 1 1 0 0 0
323 12 29.73737539688777 -9.064366548589076 39.66305886213591 5 1 1 0 0 0
309 1 29.690673511054296 -9.051099183977264 39.679038787795704 0 1 1 0 0 0
332 3 30.79855264484754 -9.104381984746393 39.10896545576685 5 1 1 0 0 0
331 3 30.749447471816964 -8.879729856285634 39.19557955831193 5 1 1 0 0 0
330 3 30.71135625437709 -8.83787853479231 39.67073215026867 5 1 1 0 0 0
452 1 32.19502530790279 -9.220839172742668 37.4785071001078 0 1 1 0 0 0
466 7 32.1957257370559 -9.19425331495155 37.491134735034144 7 1 1 0 0 0
465 6 32.834349693338766 -9.26361343537184 37.67896986528646 7 1 1 0 0 0
451 1 32.82200962601808 -9.271959258980681 37.67973376359092 0 1 1 0 0 0
198 21 29.878291538285385 -8.40000316804762 42.497469192017405 3 1 1 0 0 0
212 1 29.875503034398804 -8.361901631712378 42.4343297406411 0 1 1 0 0 0
183 3 30.181866681014398 -9.322296557390716 42.25828698933483 3 1 1 0 0 0
226 1 35.9637536190707 -12.64021534805016 40.34770891931044 0 1 1 0 0 0
354 2 33.041943266536485 -9.011201392981722 39.87674266141801 5 1 1 0 0 0
368 1 33.347967642475055 -10.709440014288102 38.682776422358465 0 1 1 0 0 0
316 5 33.053897122379354 -9.13636861876226 40.86403059643033 5 1 1 0 0 0
302 1 33.00795418662035 -9.108854603629126 40.89879815463666 0 1 1 0 0 0
301 1 33.512688502523616 -9.510524368948737 40.9564486243807 0 1 1 0 0 0
519 1 36.99408247880112 -9.876024023127691 37.61615069303652 0 1 1 0 0 0
225 1 35.40647181990335 -12.186733689403482 40.37922587200858 0 1 1 0 0 0
224 1 34.82266133980213 -11.844721563242265 40.27648219520093 0 1 1 0 0 0
223 1 34.1549607798547 -11.68931890212444 40.20311471326309 0 1 1 0 0 0
374 1 37.12287065670925 -11.101759691812227 39.356801711492075 0 1 1 0 0 0
446 1 35.69985472360479 -9.414590262577617 39.24784614117044 0 1 1 0 0 0
445 1 36.21584993198613 -9.472403508921634 39.67173800422505 0 1 1 0 0 0
447 1 35.144606155357884 -9.491004833810194 38.939682996747266 0 1 1 0 0 0
372 1 35.8435318565624 -11.095991723687549 39.334800586358185 0 1 1 0 0 0
373 1 36.50286940553804 -11.060193016913807 39.23594805618522 0 1 1 0 0 0
369 1 33.95940757697097 -10.9117927958307 38.87993268508049 0 1 1 0 0 0
370 1 34.581442629630146 -11.048454390858831 39.116998885115855 0 1 1 0 0 0
371 1 35.184885594047955 -11.148973411701569 39.33429818961434 0 1 1 0 0 0
300 1 34.08336627036984 -9.902650934804589 40.938710299994554 0 1 1 0 0 0
448 1 34.57243009076572 -9.417347942588789 38.53378816847103 0 1 1 0 0 0
444 1 36.63834727045384 -9.605582400966915 40.164053039967364 0 1 1 0 0 0
449 1 34.05436165754494 -9.324991966771572 38.17113501432245 0 1 1 0 0 0
443 1 37.13068373127821 -9.704426782420182 40.66080902097988 0 1 1 0 0 0
450 1 33.454628000110034 -9.284271244222666 37.937018421032306 0 1 1 0 0 0
464 5 33.49228703722565 -9.27373114689869 37.86807780650665 7 1 1 0 0 0
299 1 34.602058594603065 -10.233047341489424 41.149626816203686 0 1 1 0 0 0
298 1 35.144597515099434 -10.566860217469555 41.3467771484971 0 1 1 0 0 0
296 1 36.276252896262946 -11.152753024713217 41.68386461631851 0 1 1 0 0 0
297 1 35.76283360246057 -10.80687441098698 41.484962487657754 0 1 1 0 0 0
280 2 37.645496969182425 -12.990702870243618 41.0959814496633 4 1 1 0 0 0
393 8 40.136719351110386 -12.19589471171335 39.922898626742025 6 1 1 0 0 0
394 9 40.65267418117462 -12.279730320774258 40.35985048265613 6 1 1 0 0 0
395 10 40.9478549899151 -12.283838082282458 40.96607551846932 6 1 1 0 0 0
381 1 40.94133447847903 -12.293520375254102 40.96321730468922 0 1 1 0 0 0
382 1 41.04398146678416 -12.236199170676835 41.61705836402044 0 1 1 0 0 0
396 11 41.03172699996071 -12.213745096449065 41.62535493291502 6 1 1 0 0 0
392 7 39.5478574064807 -12.093872017947584 39.607042852497315 6 1 1 0 0 0
378 1 39.526381545551054 -12.061370707269463 39.633516806267046 0 1 1 0 0 0
432 2 40.93087151946438 -11.217903090803143 40.171022251026535 6 1 1 0 0 0
433 1 41.27792253345529 -11.23027798792628 40.74847223465337 0 1 1 0 0 0
419 22 41.30500085032126 -11.25222238305082 40.73125778405903 6 1 1 0 0 0
401 3 39.975954111180386 -11.591285615144319 40.70304901376765 6 1 1 0 0 0
402 3 40.17232758679265 -11.597194555455403 40.910591083961535 6 1 1 0 0 0
416 4 39.637362469992425 -11.568868712177027 40.888517071877374 6 1 1 0 0 0
404 3 40.305423631327095 -11.555747680342227 41.4001359042514 6 1 1 0 0 0
403 3 40.267101393510515 -11.576320528695739 41.15596955931551 6 1 1 0 0 0
420 21 41.37552431674052 -11.186955548821937 41.384862629997265 6 1 1 0 0 0
421 20 41.28180379240226 -11.063700957512575 42.046855996235124 6 1 1 0 0 0
435 1 41.26676461286915 -11.073768906778017 42.048826478209556 0 1 1 0 0 0
375 1 37.780029541211434 -11.15034066424337 39.4375480150527 0 1 1 0 0 0
520 1 37.57775862160374 -9.792088345998284 37.915786778118196 0 1 1 0 0 0
377 1 38.9328396716857 -11.790476874003964 39.65501079960298 0 1 1 0 0 0
391 6 38.93816929418612 -11.822846655528163 39.659569785132724 6 1 1 0 0 0
431 2 40.50533613864047 -11.14642371778478 39.64661847100588 6 1 1 0 0 0
430 2 39.867685155796366 -11.044475607173194 39.50611364254551 6 1 1 0 0 0
376 1 38.2865953348105 -11.505757639047077 39.607735452984784 0 1 1 0 0 0
390 5 38.318074348777984 -11.532822694822551 39.653599785475016 6 1 1 0 0 0
400 3 39.66521018880953 -11.547698675267462 40.52099079840304 6 1 1 0 0 0
399 3 39.405128949686045 -11.48291426850359 40.4758470801662 6 1 1 0 0 0
429 2 39.24436891488376 -10.81372966853265 39.535949728338835 6 1 1 0 0 0
521 1 38.135803236301975 -9.775979403053014 38.26769880366618 0 1 1 0 0 0
414 4 39.40555307182007 -11.317006057302612 41.6337400334121 6 1 1 0 0 0
412 4 39.09512779507461 -11.283032079078268 41.074522708607944 6 1 1 0 0 0
418 23 39.81021047415838 -11.12173648196027 41.30023680392484 6 1 1 0 0 0
406 3 40.22558799633578 -11.020986694425753 41.71930056038859 6 1 1 0 0 0
405 3 40.39525191664284 -11.117533840995268 41.57005344237514 6 1 1 0 0 0
417 4 39.96559045540605 -10.85289878863943 40.748627327503876 6 1 1 0 0 0
522 1 38.76643430682216 -9.91459543592102 38.36320686536324 0 1 1 0 0 0
523 1 39.40721686673737 -10.088622563793354 38.428157841980806 0 1 1 0 0 0
538 5 40.041335327107014 -10.055440556026921 38.58345157898417 8 1 1 0 0 0
524 1 40.07708915800609 -10.108858793515317 38.60182840175624 0 1 1 0 0 0
428 2 38.71650153145671 -10.661664056288876 39.92360594135084 6 1 1 0 0 0
407 3 40.02641822653073 -10.894125641025846 41.83003301238921 6 1 1 0 0 0
413 4 39.42339895451643 -10.566974111159864 40.93461336346158 6 1 1 0 0 0
408 3 39.78911381113889 -10.729123443093437 41.86279339567467 6 1 1 0 0 0
409 3 39.48699376464567 -10.5399230921956 41.775260538260625 6 1 1 0 0 0
415 4 39.73382423126189 -10.600948089384202 41.49383068826573 6 1 1 0 0 0
410 3 39.291985509362384 -10.43389675592757 41.619436642824304 6 1 1 0 0 0
411 2 38.26779758354328 -10.553061794792773 40.57049175841969 6 1 1 0 0 0
525 1 40.691338520797515 -10.051639515104608 38.83028420340009 0 1 1 0 0 0
539 6 40.680972557926104 -10.038884962036697 38.82704110104477 8 1 1 0 0 0
389 2 38.1191684050051 -10.555174684773828 41.35449408659416 6 1 1 0 0 0
441 1 38.16087714065216 -9.580496780048005 41.57482461498668 0 1 1 0 0 0
427 14 38.19972983530407 -9.6198187894441 41.53259890578812 6 1 1 0 0 0
442 1 37.63352462958601 -9.52853653541054 41.11980449505538 0 1 1 0 0 0
526 1 41.31834591561067 -10.050217426763083 39.028783024003644 0 1 1 0 0 0
540 7 41.32460500449708 -10.03835989051386 39.01053610920837 8 1 1 0 0 0
577 2 40.73053013798943 -9.174076237328642 38.21303203309293 8 1 1 0 0 0
578 2 41.36863812184267 -9.125693442872477 38.39506038951953 8 1 1 0 0 0
576 2 40.08638341811592 -9.081713530200267 38.38247579369839 8 1 1 0 0 0
547 3 40.7559431530471 -9.20721098172816 39.377247153669565 8 1 1 0 0 0
548 3 40.99558762843143 -9.135406519095254 39.483611810223174 8 1 1 0 0 0
559 2 39.443584363833054 -8.872828167750184 38.800345145969104 8 1 1 0 0 0
560 4 40.23041894262804 -8.893523719230574 39.72329808808557 8 1 1 0 0 0
564 4 40.85903786777852 -8.993096797694927 39.7957036775645 8 1 1 0 0 0
565 4 41.011784207506516 -8.359961547785888 39.33124270673667 8 1 1 0 0 0
549 3 41.232019932086786 -8.963352247778477 39.69832385904642 8 1 1 0 0 0
541 8 41.787147129764165 -9.741277275617211 39.403877439708445 8 1 1 0 0 0
550 3 41.34632356427614 -8.794667857866282 39.89870206312129 8 1 1 0 0 0
551 3 41.3490914950131 -8.627260647189427 40.10257307619778 8 1 1 0 0 0
552 3 41.30079656659462 -8.48278160480072 40.29837791832252 8 1 1 0 0 0
426 15 38.71312838473372 -9.700755382317091 41.97643197776186 6 1 1 0 0 0
440 1 38.69948488447272 -9.678519011880562 41.98388386558711 0 1 1 0 0 0
688 7 42.42383335391141 -8.527561428062123 36.66364501104196 10 1 1 0 0 0
434 1 41.4578895121168 -11.195141401867255 41.35844182439862 0 1 1 0 0 0
527 1 41.78912021805142 -9.772735505223501 39.44399796250814 0 1 1 0 0 0
579 2 41.93138272627868 -8.890541530507335 38.64953217241339 8 1 1 0 0 0
528 1 42.13029862602819 -9.416035892303892 39.891208129806365 0 1 1 0 0 0
542 9 42.14016030682511 -9.402518837092863 39.87797973621195 8 1 1 0 0 0
529 1 42.21237406246531 -9.02270635064652 40.3993183202893 0 1 1 0 0 0
543 10 42.217085168754345 -9.008936708707305 40.4201075637883 8 1 1 0 0 0
580 2 42.17094461362596 -8.537052178498923 39.17758933385264 8 1 1 0 0 0
581 1 42.2815923343326 -8.167837850377941 39.692024282212735 0 1 1 0 0 0
567 22 42.342372452117964 -8.157659400922704 39.708381825333966 8 1 1 0 0 0
329 3 30.884147126013193 -8.702429805429118 39.78624442837421 5 1 1 0 0 0
327 3 31.347403130401286 -8.614139458206644 40.04640870145128 5 1 1 0 0 0
326 3 31.672809408054917 -8.721352094359135 40.165665000546305 5 1 1 0 0 0
328 3 31.091435374275886 -8.608174419890535 39.91945339064462 5 1 1 0 0 0
343 4 31.665712970869798 -8.6426187247171 39.37911826456421 5 1 1 0 0 0
361 1 29.94955192864992 -8.553411763673955 38.7431897947962 0 1 1 0 0 0
347 20 29.93133083559053 -8.542628482514623 38.712682389412336 5 1 1 0 0 0
346 21 30.25000874901159 -8.030183792740534 39.02564212376156 5 1 1 0 0 0
360 1 30.22801340446176 -7.9850694790752055 38.98360966153685 0 1 1 0 0 0
322 11 29.824046215310872 -8.459782623441813 39.95536641453133 5 1 1 0 0 0
308 1 29.788041375400713 -8.457126796817635 39.97850163812917 0 1 1 0 0 0
321 10 30.272067517100634 -8.08007381810819 40.27409282306178 5 1 1 0 0 0
307 1 30.27180316032907 -8.031366503114123 40.18884488440105 0 1 1 0 0 0
345 22 30.688573433732056 -7.644221784546414 39.33406296689849 5 1 1 0 0 0
358 2 31.29448415691752 -7.544458010942358 39.61332859844028 5 1 1 0 0 0
357 2 31.92502224871413 -7.506482921938659 39.86266953637398 5 1 1 0 0 0
359 1 30.748299960917734 -7.669192377689195 39.28623039906212 0 1 1 0 0 0
356 2 32.44649559790463 -7.883003426485706 40.01432726199215 5 1 1 0 0 0
306 1 30.81344769536445 -7.847997909707246 40.59639354293036 0 1 1 0 0 0
320 9 30.84664220666064 -7.8913201195342335 40.57235860485996 5 1 1 0 0 0
319 8 31.480104079934218 -7.978948234884056 40.807299287309725 5 1 1 0 0 0
305 1 31.474222125213895 -7.919380637912882 40.824807777617494 0 1 1 0 0 0
317 6 32.543718701828595 -8.684802499809166 40.931502237272795 5 1 1 0 0 0
303 1 32.551334165358234 -8.61153983515459 40.94394999191519 0 1 1 0 0 0
318 7 32.08672097083183 -8.201596357821881 41.00574260775661 5 1 1 0 0 0
304 1 32.0327035325006 -8.185920119624445 40.998063423304615 0 1 1 0 0 0
355 2 32.90781765943857 -8.361686058945761 39.987833690636265 5 1 1 0 0 0
593 1 37.73098682981828 -8.802280816568963 36.931115304652046 0 1 1 0 0 0
712 4 41.46790628764232 -7.667888334515599 37.18612124840238 10 1 1 0 0 0
681 2 40.16089808091528 -6.919992053045117 38.33221487446911 10 1 1 0 0 0
700 3 41.55744791145788 -7.10368690610772 37.804094348291834 10 1 1 0 0 0
697 3 41.83217469239211 -7.5479787510189285 37.23587502902954 10 1 1 0 0 0
698 3 41.82050635943363 -7.370871024416689 37.45985688450841 10 1 1 0 0 0
699 3 41.70760919603274 -7.220561579472729 37.64503165832135 10 1 1 0 0 0
717 20 41.65458975850146 -5.959059654326517 38.34637007855531 10 1 1 0 0 0
731 1 41.670115519892974 -5.9562132180866385 38.373591226923885 0 1 1 0 0 0
562 4 40.34410459402261 -8.539413338534528 40.24481681349272 8 1 1 0 0 0
592 1 38.061931076048076 -8.420530230321102 37.34316283746658 0 1 1 0 0 0
694 13 40.71730936743465 -6.861577258944358 38.693767753816005 10 1 1 0 0 0
680 1 40.7359824673012 -6.895640230348154 38.673806429675174 0 1 1 0 0 0
679 1 41.37977628186667 -6.950951828818859 38.77348558974004 0 1 1 0 0 0
693 12 41.38447095895442 -6.937130238669212 38.77484411076124 10 1 1 0 0 0
591 1 38.42339983153514 -8.116879678244244 37.82541423422082 0 1 1 0 0 0
590 1 38.65382104904372 -7.894129461892697 38.46700695069824 0 1 1 0 0 0
566 23 40.766448912394964 -8.37932663527642 39.914514302786934 8 1 1 0 0 0
561 4 40.38318738657344 -8.260310614221561 39.258778380667955 8 1 1 0 0 0
575 14 38.827564012681194 -7.713190107178971 39.07780574468787 8 1 1 0 0 0
589 1 38.84720510641005 -7.61094402835341 39.07158340770057 0 1 1 0 0 0
537 2 39.05957238852406 -8.570151255336375 39.43107051180667 8 1 1 0 0 0
563 4 40.49687303796801 -7.906200233525516 39.780297106075096 8 1 1 0 0 0
536 2 38.96515762749661 -8.2980460739452 40.03644804257587 8 1 1 0 0 0
558 3 40.01041476638771 -7.889385427226298 39.73579910274657 8 1 1 0 0 0
556 3 40.464063819234326 -7.815522597760115 40.16275877727639 8 1 1 0 0 0
555 3 40.734324267339524 -7.8682832669699785 40.25650287348787 8 1 1 0 0 0
534 2 39.62867881598384 -7.945702956738549 41.100151697070665 8 1 1 0 0 0
557 3 40.16662319046827 -7.8247378039047515 39.94786473656106 8 1 1 0 0 0
535 2 39.22809151223746 -8.033472966541574 40.587217394204906 8 1 1 0 0 0
586 1 39.97066103180605 -6.965166915431713 40.43364122662173 0 1 1 0 0 0
572 17 39.965573009932 -7.019133406926059 40.50520649031268 8 1 1 0 0 0
574 15 39.17513780637046 -7.369849757663175 39.555764101383126 8 1 1 0 0 0
588 1 39.19450103213268 -7.358642026081401 39.55229773936774 0 1 1 0 0 0
573 16 39.426412916426194 -7.066490130933005 40.08903193046773 8 1 1 0 0 0
587 1 39.42696329869838 -7.0595609564160835 40.09678177247431 0 1 1 0 0 0
571 18 40.586414181067866 -7.038985817571183 40.79527434860488 8 1 1 0 0 0
585 1 40.56633287162399 -6.981676138922162 40.814293401045674 0 1 1 0 0 0
554 3 40.98452314225069 -7.941853806775828 40.259952317771564 8 1 1 0 0 0
678 1 42.06608965828164 -7.088832139899016 38.70715629235935 0 1 1 0 0 0
692 11 42.03615749442341 -7.099330373209342 38.688410749473036 10 1 1 0 0 0
553 3 41.212051334854486 -8.020792134450762 40.211151071943924 8 1 1 0 0 0
570 19 41.24616761197967 -7.173975435796558 40.8447103655507 8 1 1 0 0 0
584 1 41.26365538170586 -7.164748862579662 40.836685941714784 0 1 1 0 0 0
674 1 42.41943420326858 -8.50024322421048 36.652958764598154 0 1 1 0 0 0
675 1 42.608964591012246 -8.155220953436125 37.211318264522745 0 1 1 0 0 0
689 8 42.62272647355311 -8.15882127408288 37.194109831555586 10 1 1 0 0 0
677 1 42.47167040201393 -7.425639523280439 38.31519587625525 0 1 1 0 0 0
676 1 42.62865970616208 -7.830967672842376 37.81561682773993 0 1 1 0 0 0
690 9 42.683401734914995 -7.779649283729684 37.7568670481155 10 1 1 0 0 0
730 1 42.19725886115043 -6.139356900045095 38.050629591328175 0 1 1 0 0 0
716 21 42.21031767232921 -6.211398957921425 38.04686930367501 10 1 1 0 0 0
691 10 42.458090590468764 -7.414361673488387 38.27692207173563 10 1 1 0 0 0
715 22 42.636225977375254 -6.513224123063419 37.64198900002983 10 1 1 0 0 0
583 1 41.881207114335304 -7.359061459446975 40.6877690860459 0 1 1 0 0 0
569 20 41.85296394403558 -7.408270306592023 40.691002215726314 8 1 1 0 0 0
568 21 42.181410513338854 -7.775569152816185 40.222707510251965 8 1 1 0 0 0
582 1 42.14975921152738 -7.80125292737934 40.20308881834372 0 1 1 0 0 0
83 1 35.97978859401602 -17.63498135894067 42.36623780636062 0 1 1 0 0 0
97 8 35.969164486326065 -17.631326910813144 42.395661041004374 2 1 1 0 0 0
84 1 36.552806801545906 -17.911926949802332 42.536858547073 0 1 1 0 0 0
98 9 36.5870481422162 -17.88282736526666 42.533936223497534 2 1 1 0 0 0
102 13 37.40764489181687 -17.6605907398593 44.739255692697526 2 1 1 0 0 0
88 1 37.42584338751503 -17.67785637569297 44.768936181194825 0 1 1 0 0 0
85 1 37.0583800856423 -18.123174683060945 42.96216730400193 0 1 1 0 0 0
99 10 37.10967857958253 -18.041469980156705 42.929413843950485 2 1 1 0 0 0
101 12 37.530754677642655 -17.922619458346915 44.1280510576678 2 1 1 0 0 0
87 1 37.59037104563025 -17.954521971088486 44.17358490498136 0 1 1 0 0 0
86 1 37.494850129217696 -18.148646926849047 43.52983026277141 0 1 1 0 0 0
100 11 37.4922455907008 -18.095769172300628 43.47456774060404 2 1 1 0 0 0
17 2 28.636793266838477 -13.043284835983187 43.97574319145793 1 1 1 0 0 0
18 2 29.20015341865647 -13.206363121852842 44.28956441168599 1 1 1 0 0 0
6 1 30.06502812989419 -12.149494672563398 46.450609304507374 0 1 1 0 0 0
1 1 31.874190423596037 -14.59176793530465 47.370588037550185 0 1 1 0 0 0
19 2 29.716914992234237 -13.017495694132188 44.67271280291791 1 1 1 0 0 0
4 1 30.764820420674646 -13.27820697520562 46.52780505492508 0 1 1 0 0 0
3 1 31.05373194143883 -13.825302967549485 46.650262992794616 0 1 1 0 0 0
5 1 30.465354400107167 -12.669519948420753 46.48109548507382 0 1 1 0 0 0
20 5 30.067387997856926 -12.152734762525856 46.40990561096805 1 1 1 0 0 0
72 1 30.769295382296878 -13.217994413234505 44.066188658566865 0 1 1 0 0 0
73 1 31.31790671460219 -13.5733734830782 44.18444656548801 0 1 1 0 0 0
74 1 31.777338883768422 -14.017248743011052 44.16916402302791 0 1 1 0 0 0
75 1 32.185056381592446 -14.515165313353961 44.166894055252996 0 1 1 0 0 0
41 2 30.174623672969712 -12.552926735825142 45.132640703703345 1 1 1 0 0 0
76 1 32.62604873226552 -15.025922236537507 44.15055936008236 0 1 1 0 0 0
2 1 31.397300221415115 -14.349046477300112 46.965444656390176 0 1 1 0 0 0
71 1 30.231500349564545 -13.030788736806242 43.74828546447885 0 1 1 0 0 0
57 14 30.226171836191643 -12.989809688157195 43.86468155879446 1 1 1 0 0 0
77 1 33.15471291796429 -15.440270440008085 43.9727576855687 0 1 1 0 0 0
58 2 30.37047699639891 -11.87755521504852 45.50271745118366 1 1 1 0 0 0
150 1 33.5973249525264 -13.029147194559734 43.355323630162204 0 1 1 0 0 0
96 7 35.34679544314865 -17.367566129178602 42.39915694705701 2 1 1 0 0 0
133 2 35.36948190593458 -16.05836216080012 42.54554885037019 2 1 1 0 0 0
106 3 36.58645594940014 -17.217452370943157 43.280442640306305 2 1 1 0 0 0
107 3 36.782301649129344 -17.255045448538954 43.45318872916059 2 1 1 0 0 0
120 4 36.12290843172448 -17.082641425478382 43.513715385048656 2 1 1 0 0 0
118 4 36.31663086300078 -16.91349912711236 44.292486309084644 2 1 1 0 0 0
90 2 36.638335801875606 -16.860026784675238 45.5130077978926 2 1 1 0 0 0
89 2 37.0525831343252 -17.27537077636097 45.15070649423918 2 1 1 0 0 0
108 3 36.92890734960538 -17.28175649468209 43.65151169556103 2 1 1 0 0 0
81 1 34.868095081615465 -17.0287712068913 42.675646598928296 0 1 1 0 0 0
95 6 34.911919825224075 -16.995313300835996 42.74588004317544 2 1 1 0 0 0
80 1 34.43083439598482 -16.67931180800945 43.048548010887274 0 1 1 0 0 0
105 3 36.32654184521877 -17.140284269941457 43.190112646199196 2 1 1 0 0 0
104 3 35.988745949220025 -17.00857252356398 43.17782840419582 2 1 1 0 0 0
103 3 35.760717976473366 -16.888039952209017 43.26360655110755 2 1 1 0 0 0
94 5 34.44673998771118 -16.593277600303193 43.04704115465371 2 1 1 0 0 0
79 1 33.99813124850874 -16.265747385934805 43.37467439994309 0 1 1 0 0 0
116 4 35.809123295780495 -16.730552277278665 43.947174309642 2 1 1 0 0 0
122 23 36.56500949286096 -16.749598382199903 43.818641701174066 2 1 1 0 0 0
78 1 33.52583252707753 -15.868631287551919 43.72173508703864 0 1 1 0 0 0
121 4 36.51995454872621 -16.431011873013176 43.27342909483666 2 1 1 0 0 0
132 2 35.124669189229316 -15.870947906339707 43.14311507060058 2 1 1 0 0 0
115 2 35.05257459658074 -15.782567297654323 43.92952034278486 2 1 1 0 0 0
93 2 35.272538663460985 -15.88159415359398 44.69022135906774 2 1 1 0 0 0
131 14 35.65169436578251 -15.02069285122733 44.857878052447035 2 1 1 0 0 0
145 1 35.68591874172222 -15.003999488392639 44.8311261882031 0 1 1 0 0 0
147 1 34.7654331934918 -14.260087268798943 44.251611144689626 0 1 1 0 0 0
146 1 35.20036120877463 -14.716591057225498 44.51021365029544 0 1 1 0 0 0
92 2 35.62813682721506 -16.093089155727036 45.217797521006354 2 1 1 0 0 0
117 4 36.20616941278223 -16.078922724813463 43.70688801943 2 1 1 0 0 0
130 15 36.271110294893525 -15.270017361504681 45.00376101422975 2 1 1 0 0 0
91 2 36.165550207155526 -16.408538198663926 45.450452611258356 2 1 1 0 0 0
144 1 36.25619685603293 -15.278110881810713 45.02490643580614 0 1 1 0 0 0
114 3 36.430198919820356 -16.034550659177768 44.37912840038942 2 1 1 0 0 0
119 4 36.71367698000251 -16.261869574647154 44.05220001887264 2 1 1 0 0 0
113 3 36.64126379906008 -16.200043065701077 44.41929943640601 2 1 1 0 0 0
112 3 36.89367394190518 -16.45591022412056 44.34471516841835 2 1 1 0 0 0
143 1 36.854378456093286 -15.539834577991728 45.183522286910424 0 1 1 0 0 0
129 16 36.824490369470944 -15.545007680478303 45.24395211918678 2 1 1 0 0 0
148 1 34.28392857927765 -13.956324357379971 43.99463795186567 0 1 1 0 0 0
111 3 37.0427921196692 -16.65642380403906 44.195764181417246 2 1 1 0 0 0
109 3 37.189823881992446 -16.902439835088533 43.781806209957836 2 1 1 0 0 0
110 3 37.133861720129886 -16.800009816773418 43.99804110026843 2 1 1 0 0 0
128 17 37.313942955626274 -16.00810677039137 45.133903589766575 2 1 1 0 0 0
142 1 37.35268417473364 -16.020395444180586 45.19406621951708 0 1 1 0 0 0
136 2 37.00450259645861 -16.87896428675731 42.292044006270736 2 1 1 0 0 0
149 1 33.99122250135736 -13.469618712572576 43.612539817745755 0 1 1 0 0 0
251 3 37.9118750194664 -14.130442107959384 41.38508641042669 4 1 1 0 0 0
252 3 38.12279064688674 -14.299073395989884 41.415874310762035 4 1 1 0 0 0
233 1 39.03571875075597 -15.5934880870118 41.6438173036885 0 1 1 0 0 0
247 10 38.983897291778895 -15.559829154274047 41.64860551709222 4 1 1 0 0 0
268 4 38.03567688777185 -14.409324626596476 41.75726880996583 4 1 1 0 0 0
269 4 38.61177422775761 -13.86359516442645 41.85877169160447 4 1 1 0 0 0
253 3 38.36798374761007 -14.506263056221439 41.58487301719144 4 1 1 0 0 0
254 3 38.51698531771863 -14.643820109656746 41.78624161939988 4 1 1 0 0 0
286 1 39.72348809058974 -14.887127840024716 42.38179691684973 0 1 1 0 0 0
272 21 39.70406789544583 -14.871207843398391 42.40273880072707 4 1 1 0 0 0
265 4 38.1839518540594 -13.456973303137238 42.10765314243785 4 1 1 0 0 0
264 4 37.607854514073644 -14.002702765307266 42.00615026079921 4 1 1 0 0 0
255 3 38.57596480955823 -14.729630220393696 42.02870262170263 4 1 1 0 0 0
270 23 38.29248941245723 -14.195070771474457 42.29342122703589 4 1 1 0 0 0
256 3 38.58280427851324 -14.793933781167334 42.2681338513621 4 1 1 0 0 0
257 3 38.79520254024513 -14.48877298575388 42.56933260040981 4 1 1 0 0 0
267 4 38.37686150117142 -13.760444881518385 42.63768230009804 4 1 1 0 0 0
258 3 38.65048182004445 -14.380581440509026 42.73586102744297 4 1 1 0 0 0
273 20 39.563652360540324 -14.910934211034155 43.06675924376755 4 1 1 0 0 0
125 20 38.17847805822617 -17.09912763013297 43.788352475471285 2 1 1 0 0 0
139 1 38.17702317572371 -17.108828080509458 43.77109186412127 0 1 1 0 0 0
140 1 38.07334866860681 -16.820007679018342 44.400405602583525 0 1 1 0 0 0
127 18 37.75732928294407 -16.457352950121454 44.86642527448558 2 1 1 0 0 0
141 1 37.7367211450531 -16.45787749496351 44.89302547805389 0 1 1 0 0 0
234 1 39.028374968615324 -15.742943267105728 42.31150185891358 0 1 1 0 0 0
248 11 38.989409004492934 -15.713133124608778 42.29903533721317 4 1 1 0 0 0
287 1 39.58122804707667 -14.839380917430283 43.070004911137666 0 1 1 0 0 0
259 3 38.494739293215794 -14.223790287929566 42.874367944995235 4 1 1 0 0 0
288 1 39.200890176261495 -14.624333751452063 43.594700791533846 0 1 1 0 0 0
274 19 39.18686737986407 -14.630306280056837 43.54201409065728 4 1 1 0 0 0
137 1 37.59124722725566 -16.993503225131647 42.63543683524296 0 1 1 0 0 0
123 22 37.56726042396741 -17.074755869490616 42.60828065216801 2 1 1 0 0 0
249 12 38.69661787465764 -15.567256342260023 42.89188487728328 4 1 1 0 0 0
235 1 38.71388833330629 -15.60265739456967 42.889840680532785 0 1 1 0 0 0
261 3 38.12891964622695 -13.690987052933101 42.916149350599376 4 1 1 0 0 0
260 3 38.32867776252185 -13.997124371417465 42.94959083988312 4 1 1 0 0 0
266 4 37.80076416118566 -14.306174343688413 42.5361794184594 4 1 1 0 0 0
275 18 38.750148123297556 -14.210911614016709 43.841074937043246 4 1 1 0 0 0
289 1 38.76171121500343 -14.202517491832573 43.86388161385078 0 1 1 0 0 0
124 21 37.93459874854455 -17.130229515001787 43.15458527273291 2 1 1 0 0 0
138 1 37.9977979890973 -17.162502790999476 43.11095197863192 0 1 1 0 0 0
236 1 38.31108560719167 -15.308508643333582 43.382899510107094 0 1 1 0 0 0
250 13 38.31114658082674 -15.296363899632688 43.37708176392182 4 1 1 0 0 0
237 2 37.867707393893525 -14.847453224562193 43.59055896278803 4 1 1 0 0 0
126 19 38.05496776552528 -16.827440569942734 44.38634495980711 2 1 1 0 0 0
238 2 37.408220361241064 -14.35441094593118 43.73607546484389 4 1 1 0 0 0
16 2 28.049265916559104 -12.77327153969669 43.8609134857969 1 1 1 0 0 0
15 2 27.67608922630875 -12.203598862389304 43.96855247469603 1 1 1 0 0 0
44 4 28.593426706090963 -11.992523798247703 44.691782608103395 1 1 1 0 0 0
68 1 28.65000039335604 -12.150134118293886 43.0940263424122 0 1 1 0 0 0
54 17 28.642060223475475 -12.13189592417139 43.11046632753384 1 1 1 0 0 0
53 18 28.19308800655773 -11.617415668675285 43.17121758780577 1 1 1 0 0 0
67 1 28.210030710848688 -11.641407132069261 43.16652178590211 0 1 1 0 0 0
14 1 27.379238793335094 -11.61571355992373 44.125270504441396 0 1 1 0 0 0
28 13 27.37000931132825 -11.632824134831885 44.12439192031699 1 1 1 0 0 0
161 1 29.180125898759428 -9.504827022375208 42.83738705675986 0 1 1 0 0 0
66 1 27.910003117438677 -11.060639590556992 43.345969483268625 0 1 1 0 0 0
52 19 27.948234123290373 -11.027824329742808 43.391351190058735 1 1 1 0 0 0
65 1 27.8921202208103 -10.49640923509488 43.69819663527053 0 1 1 0 0 0
51 20 27.89884959121307 -10.45696822053355 43.73536957604723 1 1 1 0 0 0
175 12 29.20418125508249 -9.492449423849314 42.79872199808728 3 1 1 0 0 0
160 1 29.464215554469234 -9.115938629544651 43.299013977984124 0 1 1 0 0 0
174 11 29.455866719834567 -9.075535113999791 43.26919102360886 3 1 1 0 0 0
38 3 28.730826417633427 -11.722532428962092 44.01849396300137 1 1 1 0 0 0
36 3 28.479695546707433 -11.275579458605403 44.2013744357733 1 1 1 0 0 0
37 3 28.560775090008402 -11.498752594205493 44.09355479687254 1 1 1 0 0 0
35 3 28.453896567321223 -11.062030298660382 44.32016992789907 1 1 1 0 0 0
50 21 28.20874550928623 -10.097527165060958 44.22206705523358 1 1 1 0 0 0
64 1 28.211844271086015 -10.059983656937563 44.222294034364545 0 1 1 0 0 0
55 16 29.180406056454142 -12.550043425764127 43.148862335532854 1 1 1 0 0 0
69 1 29.153825645448197 -12.555778476376522 43.153644210879804 0 1 1 0 0 0
173 10 30.00797742413062 -8.936074444849584 43.61879534746927 3 1 1 0 0 0
159 1 29.99031787031652 -8.906049287053875 43.630097759933314 0 1 1 0 0 0
34 3 28.28772157582133 -11.08585573475004 44.768225110209414 1 1 1 0 0 0
27 12 27.333886701944728 -11.052460829334265 44.46973281346948 1 1 1 0 0 0
13 1 27.316515233685376 -11.05502090291979 44.48571988419589 0 1 1 0 0 0
167 2 31.563322972180178 -11.124261939100094 41.63553037972843 3 1 1 0 0 0
42 4 29.076727452478345 -12.037714279285504 45.109701195013734 1 1 1 0 0 0
56 15 29.718977159056077 -12.713579530917968 43.49920775273314 1 1 1 0 0 0
182 3 30.20026554077939 -9.46313644225887 42.71519051787195 3 1 1 0 0 0
172 9 30.63651984814634 -8.983588281961513 43.858363552088214 3 1 1 0 0 0
181 3 30.409941346264887 -9.416406922675415 42.83925146657665 3 1 1 0 0 0
211 1 30.428679872957094 -8.326091611933716 42.765238166701415 0 1 1 0 0 0
197 22 30.42171306747966 -8.249188544518521 42.84158010919229 3 1 1 0 0 0
39 3 29.01597555926494 -11.95367533711037 44.02064315809869 1 1 1 0 0 0
45 4 29.07496385683633 -11.61347683346107 44.17753289920501 1 1 1 0 0 0
46 4 28.822944707469816 -11.476868023689237 45.286797111126276 1 1 1 0 0 0
48 23 28.813061951064167 -11.479215632744951 44.65493767686772 1 1 1 0 0 0
31 3 28.817481392070004 -11.09261183621835 45.32952790965827 1 1 1 0 0 0
33 3 28.44280712427912 -11.018517281426082 44.94975779181656 1 1 1 0 0 0
32 3 28.616623159107597 -11.001988679147928 45.14755764051023 1 1 1 0 0 0
40 3 29.252681333018643 -12.061668802947525 44.09717824814334 1 1 1 0 0 0
70 1 29.679655273199035 -12.778553297751866 43.43549023287923 0 1 1 0 0 0
29 3 29.22292375246357 -11.511198362131145 45.55221757154429 1 1 1 0 0 0
30 3 29.06500386409006 -11.29639478232981 45.49926958373748 1 1 1 0 0 0
47 4 29.304481858215187 -11.097821058902602 44.77254740222789 1 1 1 0 0 0
43 4 29.558264603223712 -11.65866731449887 44.595451486115344 1 1 1 0 0 0
59 2 30.343992680749174 -11.240622076191176 45.71663424556385 1 1 1 0 0 0
152 1 33.19375855792983 -11.753636253430024 43.24865232132419 0 1 1 0 0 0
191 4 31.331329676038113 -9.81337368312457 41.96003131436435 3 1 1 0 0 0
196 23 30.65842532582466 -9.750486572814939 42.32651860039311 3 1 1 0 0 0
192 4 30.4908043394178 -10.284118926032384 42.311557754307316 3 1 1 0 0 0
158 1 30.66567469305043 -8.989771012458718 43.84477120589293 0 1 1 0 0 0
189 2 32.142273974577876 -10.712812873347106 41.99937369973539 3 1 1 0 0 0
195 4 31.14138241297714 -9.341830280442935 42.34975392423331 3 1 1 0 0 0
153 1 32.91375804423409 -11.108699075638443 43.22710889558199 0 1 1 0 0 0
190 4 31.09838022824097 -10.353712220870852 42.50204552985802 3 1 1 0 0 0
180 3 30.645215711021955 -9.419873763504858 42.95859945819285 3 1 1 0 0 0
194 4 30.90843296518 -9.882168818189218 42.89176813972698 3 1 1 0 0 0
168 5 32.513865416193624 -10.612985024407289 43.28584704216966 3 1 1 0 0 0
154 1 32.57780056166946 -10.58014591579529 43.30421014219998 0 1 1 0 0 0
206 2 32.436442522123656 -10.112552531123836 42.42901820579687 3 1 1 0 0 0
207 2 32.46730844501557 -9.545331504208404 42.78881220008949 3 1 1 0 0 0
208 2 32.13381356436383 -9.041514175940923 43.067356942645326 3 1 1 0 0 0
179 3 30.90384365815304 -9.52010705499227 43.027408159970754 3 1 1 0 0 0
178 3 31.205567137430595 -9.721110492361612 43.04035649648001 3 1 1 0 0 0
177 3 31.38045336742504 -9.919573972973225 42.97782809475844 3 1 1 0 0 0
157 1 31.281071921864616 -9.230515551208788 44.00912417404585 0 1 1 0 0 0
171 8 31.2521394227735 -9.26653054906196 43.92984032960326 3 1 1 0 0 0
170 7 31.807079024387647 -9.65245395289331 43.9239718599938 3 1 1 0 0 0
156 1 31.886105038010932 -9.597422318568405 43.88632944198843 0 1 1 0 0 0
169 6 32.1307304608376 -10.141016204812564 43.60076910413848 3 1 1 0 0 0
155 1 32.16936986383271 -10.111711006213087 43.638633081610465 0 1 1 0 0 0
151 1 33.38452585047613 -12.43361707795681 43.23523622913701 0 1 1 0 0 0
210 2 31.0581860857766 -8.375279722260586 43.02608465488048 3 1 1 0 0 0
209 2 31.701395652829746 -8.549794612498959 43.15653170596402 3 1 1 0 0 0
263 2 37.17409004694524 -12.90411581170519 41.72989166015097 4 1 1 0 0 0
295 1 36.67811505426991 -11.570425997630794 42.0434915138806 0 1 1 0 0 0
397 12 40.72432904460668 -12.0027161166239 42.19055243540252 6 1 1 0 0 0
241 2 36.92092711747264 -13.067425410842498 42.46879927681929 4 1 1 0 0 0
240 2 36.88493557078449 -13.366902805170934 43.067606493587135 4 1 1 0 0 0
239 2 37.139221729429835 -13.803842787025905 43.49988138430133 4 1 1 0 0 0
262 3 38.00884716581963 -13.480011495432079 42.79523556648041 4 1 1 0 0 0
276 17 38.324801751291474 -13.676157507627433 43.896679464926066 4 1 1 0 0 0
290 1 38.32969176678169 -13.720991424174505 43.91984844964364 0 1 1 0 0 0
383 1 40.73235786016492 -11.995031880855771 42.23137290067504 0 1 1 0 0 0
398 13 40.28032665445938 -11.747731360051864 42.63240252774538 6 1 1 0 0 0
384 1 40.28358237888114 -11.716884695406916 42.61484920157829 0 1 1 0 0 0
385 2 39.706486243275975 -11.441109789747044 42.775320576698846 6 1 1 0 0 0
277 16 37.95018266062773 -13.11393998189882 43.79810667824605 4 1 1 0 0 0
291 1 38.07385274534255 -13.144497425944007 43.78290899153459 0 1 1 0 0 0
294 1 37.03923284700981 -11.92771435159448 42.53116725612373 0 1 1 0 0 0
293 1 37.33254250996481 -12.287637971970446 42.99973145027385 0 1 1 0 0 0
279 14 37.29863539722194 -12.322456258952773 42.932975471535826 4 1 1 0 0 0
423 18 40.288085669197024 -10.49051340362689 42.706683498908376 6 1 1 0 0 0
388 2 38.218678985700436 -10.644664450474425 42.01146826246756 6 1 1 0 0 0
439 1 39.14237144822468 -9.838546556829817 42.45750882932732 0 1 1 0 0 0
425 16 39.13021216905988 -9.81797024404772 42.47830387839153 6 1 1 0 0 0
424 17 39.69337227530896 -10.151139419446485 42.673205200330685 6 1 1 0 0 0
438 1 39.6673839527479 -10.14334360115355 42.70940339767125 0 1 1 0 0 0
437 1 40.2641770502929 -10.514220893971476 42.74462913573414 0 1 1 0 0 0
422 19 40.84178136891543 -10.800249466430577 42.47530251457253 6 1 1 0 0 0
436 1 40.841320831721966 -10.793425679921441 42.497886601515326 0 1 1 0 0 0
386 2 39.098894399106825 -11.122467307640179 42.84381239807858 6 1 1 0 0 0
387 2 38.63345461859587 -10.805426517695057 42.50600683295437 6 1 1 0 0 0
278 15 37.679519123832655 -12.712485012828939 43.345178842158795 4 1 1 0 0 0
292 1 37.675495775557835 -12.722041598647722 43.40821122178915 0 1 1 0 0 0
544 11 42.06525952731547 -8.615182465752364 40.938179673013124 8 1 1 0 0 0
530 1 42.036667901989 -8.594804322907638 40.95349731707741 0 1 1 0 0 0
533 2 40.28814376333607 -7.991209472621603 41.296180139715865 8 1 1 0 0 0
532 1 40.938475243945 -8.111930591432884 41.41745965094207 0 1 1 0 0 0
546 13 40.93735617220565 -8.074903610774301 41.41968606268578 8 1 1 0 0 0
545 12 41.5497051810971 -8.307060005087097 41.25081238951754 8 1 1 0 0 0
531 1 41.54520099163449 -8.305466210587264 41.29948547263579 0 1 1 0 0 0
21 6 29.662210164642456 -11.602051908306455 46.445962151850395 1 1 1 0 0 0
7 1 29.722423165439373 -11.552322527525043 46.48335481924718 0 1 1 0 0 0
12 1 27.428884393265008 -10.545133936075011 44.91776875117806 0 1 1 0 0 0
26 11 27.451667809505256 -10.542680603587 44.899568418233535 1 1 1 0 0 0
11 1 27.853636668982798 -10.318450706458485 45.38921857001231 0 1 1 0 0 0
25 10 27.853926318088966 -10.343797222567312 45.394676673392134 1 1 1 0 0 0
60 2 30.001948721219055 -10.670176606549603 45.73209298789188 1 1 1 0 0 0
61 2 29.635193258619122 -10.154303839770144 45.54211605021676 1 1 1 0 0 0
63 1 28.623680685617053 -9.864487694522001 44.682938735063 0 1 1 0 0 0
49 22 28.606452406330664 -9.888657127398197 44.70649046497969 1 1 1 0 0 0
62 2 29.111160586593808 -9.991199577152436 45.14214947978125 1 1 1 0 0 0
10 1 28.29903125443905 -10.36566225436336 45.88884344594595 0 1 1 0 0 0
24 9 28.341808122736257 -10.356313711901107 45.86000159620291 1 1 1 0 0 0
8 1 29.29485848690716 -11.018945599768502 46.50346004158656 0 1 1 0 0 0
22 7 29.311153930779 -11.035705002222015 46.50861284552724 1 1 1 0 0 0
23 8 28.847343215448802 -10.637832485799255 46.21963818397313 1 1 1 0 0 0
9 1 28.841003090454993 -10.605027165616125 46.26645926835196 0 1 1 0 0 0

Velocities

643 -0.010550923967662176 -0.19904605191486108 -0.4299350107283061 0.004726540866106806 -0.005411233297488894 -0.0025293531491244444
657 -0.3607646462355243 -0.7817343914883266 -1.3674899844671278 -0.033967890413593264 0.08017729113546104 -0.21919829459849396
642 -0.005539227766622454 -0.21646872809702933 -0.383296148760029 0.004726540866106806 -0.005411233297488894 -0.0025293531491244444
656 -2.573170757742619 1.5953534240998364 0.06642999275895653 0.1546280749338591 0.026899834488878845 0.21640885976058805
655 -0.8571290137936652 0.10545518736646364 0.020686220338400393 0.010699146618853562 0.11588321657528489 0.27379971271610176
641 -0.007259933520073827 -0.24605747995899097 -0.32321017251074213 0.004726540866106806 -0.005411233297488894 -0.0025293531491244444
658 -1.3094532603084945 0.3216586595506993 -1.4324299009748374 -0.3313207559769504 -0.04183179558736459 0.12005083362373797
644 -0.02465732693924534 -0.21454031529771259 -0.42314727378286066 0.004726540866106806 -0.005411233297488894 -0.0025293531491244444
659 1.1349401825960335 0.715324238457322 0.04341015872984519 0.15479231837646862 -0.01629244976026565 0.4317520249844406
645 -0.040077158008977265 -0.24466563181810974 -0.3875126079853171 0.004726540866106806 -0.005411233297488894 -0.0025293531491244444
660 0.07190863280963572 -1.1773147623634408 1.3412150401403329 -0.12809157300180635 0.2767516534292756 0.33948892268183695
646 -0.052146326466972724 -0.2857235604136247 -0.3222276901941855 0.004726540866106806 -0.005411233297488894 -0.0025293531491244444
647 -0.06027701580877469 -0.32933063014650177 -0.24412946481620784 0.004726540866106806 -0.005411233297488894 -0.0025293531491244444
661 1.4585694952530122 0.7381874305441417 1.383017499068731 0.0732126773389824 -0.17318761162276777 -0.17396616838670975
742 -0.818732462931335 0.4177210875339555 0.7140913476726414 0.14057253550656998 -0.051623105742708245 -0.6605594473941954
460 0.3343431178761111 -0.15038169430170284 -0.2892337710642339 0.008260868959830246 0.00538703550128212 0.011121099006130154
620 -0.15021832097094515 -0.29633536001022587 -0.4827898349705293 0.004726540866106806 -0.005411233297488894 -0.0025293531491244444
606 0.23409380886064152 -0.894768122801771 -1.854571075788908 -0.05079303047030013 0.04105075157030382 -0.023027704417642347
605 1.0463975700392145 -0.10506876950546487 0.16699624597722185 0.10389389811154057 0.20646697722252616 0.08957501571563262
619 -0.1348864135309562 -0.2805768207345365 -0.48785288651884917 0.004726540866106806 -0.005411233297488894 -0.0025293531491244444
626 -0.11447773298447242 -0.3258214982162995 -0.352920376968778 0.004726540866106806 -0.005411233297488894 -0.0025293531491244444
618 -0.12371708893235595 -0.27923928580365964 -0.46984252856493913 0.004726540866106806 -0.005411233297488894 -0.0025293531491244444
604 -0.9273638630071176 -0.16926203754544367 1.3807490696784657 0.1921219784178337 -0.24422491689730325 0.4431931694810498
625 -0.11563925029074963 -0.337797672389735 -0.32946935611408085 0.004726540866106806 -0.005411233297488894 -0.0025293531491244444
624 -0.12083447940767919 -0.3548660709782716 -0.3026618602645521 0.004726540866106806 -0.005411233297488894 -0.0025293531491244444
617 -0.12674667489024227 -0.310394467653148 -0.4088512448332305 0.004726540866106806 -0.005411233297488894 -0.0025293531491244444
603 1.2928852476152657 -0.9643133564656193 1.4454834883158898 0.2682339293910471 -0.061218361069746915 0.13532044634107643
654 -0.023153134735669906 -0.29594653319109665 -0.2461780502630288 0.004726540866106809 -0.005411233297488894 -0.0025293531491244452
472 0.25727103554075637 -0.3844850887878256 -0.11858465907854768 0.008260868959830246 0.00538703550128212 0.011121099006130154
458 -1.5571989098181085 3.3225808211594696 -1.208623705442661 0.1774966367991319 0.021539877805749456 0.12455920361553402
511 -0.3115167134648573 2.869826637647135 0.7316723972520371 -0.28258783728459264 0.09692821670467917 0.38597018026977997
497 0.14193537191622324 -0.05996797554076405 -0.19010748301885577 0.008260868959830246 0.00538703550128212 0.011121099006130154
482 0.04431657002395691 -0.11558793596159486 -0.09065302881384496 0.008260868959830246 0.00538703550128212 0.011121099006130154
510 0.6754443545367049 -0.13599499591885983 0.21763863937199845 -0.09373486610799533 0.05367079742178692 0.19442372736350136
496 0.08175324853782961 -0.1775701876475011 -0.08843732200524601 0.008260868959830246 0.00538703550128212 0.011121099006130154
481 0.03475988646866859 -0.1724841411345251 -0.05599382944127022 0.008260868959830246 0.00538703550128212 0.011121099006130154
489 -0.03605348583075022 -0.0895261025280108 -0.04357760241163642 0.008260868959830246 0.00538703550128212 0.011121099006130154
471 0.15975298018128242 -0.48745585334432673 0.0037315832327834766 0.008260868959830246 0.00538703550128212 0.011121099006130154
457 1.2754129408030026 -0.6935107930385804 -0.2753020923129895 -0.32105813323752647 -0.06061460577647678 0.12173988708546167
480 0.009355506560302804 -0.2194869701705297 -0.014355124323084209 0.008260868959830246 0.00538703550128212 0.011121099006130154
492 -0.026740233543738785 -0.23293931400563914 0.018973455219140505 0.008260868959830246 0.005387035501282118 0.011121099006130158
479 -0.024182098055966134 -0.2580735541085734 0.029248215080849196 0.008260868959830246 0.00538703550128212 0.011121099006130154
495 -0.011961441251206732 -0.282138046992074 0.031827369623110065 0.008260868959830246 0.00538703550128212 0.011121099006130154
509 0.16949373406925072 -2.8120628810529147 0.6667921758582757 0.18752722824587864 0.00584250095093854 -0.1785628858037861
602 1.3645299504883215 -0.2170045219120559 -0.6069597293425122 0.14630575681765487 0.09460663912373383 -0.031936780441508404
616 -0.1390226276351613 -0.3558549392446914 -0.33453405217805665 0.004726540866106806 -0.005411233297488894 -0.0025293531491244444
615 -0.16237603991157648 -0.41258110717551133 -0.2568154974057705 0.004726540866106806 -0.005411233297488894 -0.0025293531491244444
601 -2.192738406401546 0.04634909457793798 0.30886629263535925 -0.04110271116580932 0.16832509378951196 -0.013196683801753144
478 -0.004653628839952066 -0.37010114669487065 0.06900817881844803 0.008260868959830246 0.00538703550128212 0.011121099006130154
477 -0.046879811029373684 -0.37984152338427557 0.10509244643815116 0.008260868959830246 0.00538703550128212 0.011121099006130154
470 0.04526309760204724 -0.5746560752264733 0.13101546115095908 0.008260868959830246 0.00538703550128212 0.011121099006130154
456 -0.06556092849019807 -0.8730743198508665 -0.2705219295783047 -0.30202550692100893 0.0028980382029779993 0.5863906768197679
491 -0.1750163940089853 -0.18780942936108835 0.10725372681640169 0.008260868959830246 0.00538703550128212 0.011121099006130154
494 -0.13620502997291023 -0.33715571095889524 0.15076724362178517 0.008260868959830246 0.00538703550128212 0.011121099006130154
508 -1.7500559835448648 -0.09104401994427785 0.1102509873157933 -0.37094496476007244 -0.25531109385973844 -0.21410292651634727
507 1.164211324648135 -0.8064893256969807 1.2208637525614026 0.05581512948262656 0.26297411022751344 -0.2309507297632914
493 -0.250867969289645 -0.36764712847972036 0.25071005181915385 0.008260868959830246 0.00538703550128212 0.011121099006130154
476 -0.08449633548476965 -0.38642530825810917 0.13622356593520654 0.008260868959830246 0.00538703550128212 0.011121099006130154
475 -0.10889818845968732 -0.37928904557683285 0.15089272851548788 0.008260868959830246 0.00538703550128212 0.011121099006130154
455 -0.15704516121550918 1.7067484574954659 0.691233906396145 0.5695472986282168 -0.22176240107716083 0.20471127873786624
469 -0.06886326857302821 -0.6057607014839966 0.23085673413353472 0.008260868959830246 0.00538703550128212 0.011121099006130154
506 -0.33185685774450063 -0.352624449538424 0.3035924953278904 0.008260868959830251 0.0053870355012821235 0.011121099006130163
505 -0.40531080184958224 -0.32411935165235367 0.3443470495590109 0.008260868959830246 0.00538703550128212 0.011121099006130154
468 -0.16239934325448857 -0.6042757030899197 0.29961698134207854 0.008260868959830246 0.00538703550128212 0.011121099006130154
454 0.5724544604791006 -1.382534854658704 0.2591052386269236 0.015242021861909188 0.22487978317019583 0.0959236024414071
504 -0.38912226612221934 -0.265186013391465 0.3037748581355701 0.008260868959830246 0.00538703550128212 0.011121099006130154
503 -0.3541927497376041 -0.16936044837937442 0.23141115757949202 0.008260868959830246 0.00538703550128212 0.011121099006130154
459 0.3022601622515635 -0.2689182110298753 -0.2079833914413796 0.008260868959830246 0.005387035501282122 0.011121099006130158
488 0.09259263283383473 -0.25082247320182577 -0.061005686931365107 0.008260868959830246 0.00538703550128212 0.011121099006130154
486 0.00643877168499498 -0.23951375150066545 -0.002487614958713795 0.008260868959830246 0.00538703550128212 0.011121099006130154
490 -0.04638679869375883 -0.3490861938946642 0.08982841884333445 0.008260868959830246 0.00538703550128212 0.011121099006130154
473 -0.11592439285257197 -0.3248953219893269 0.12976366868887426 0.008260868959830246 0.00538703550128212 0.011121099006130154
474 -0.12252881065250515 -0.3552382168980254 0.1493675299588688 0.008260868959830246 0.00538703550128212 0.011121099006130154
467 -0.21240580955637586 -0.5650192187370853 0.31774655561245196 0.008260868959830246 0.00538703550128212 0.011121099006130154
453 0.9911092861921491 -1.0153564037706175 1.4756574800226088 -0.0276451508209576 0.0051197300554295284 0.08283966186407482
627 -0.07187072251431062 -0.29545409101086745 -0.33826894280496805 0.004726540866106806 -0.005411233297488894 -0.0025293531491244444
512 0.44585070696097084 -0.19757683355339573 -1.8230377261440924 0.07426830423477646 0.41968690528267494 0.041005263139551426
498 0.15092955692297771 0.06038267607096423 -0.25508604459606643 0.008260868959830246 0.00538703550128212 0.011121099006130154
483 0.03342699440817678 -0.0520444862658557 -0.11334444285985398 0.008260868959830246 0.00538703550128212 0.011121099006130154
623 -0.13143927487889567 -0.37877116444889547 -0.2713368400221863 0.004726540866106806 -0.005411233297488894 -0.0025293531491244444
607 -0.1661231930989342 -0.3311902954081819 -0.4379431282291767 0.00472654086610681 -0.005411233297488898 -0.0025293531491244465
628 -0.0775362512918203 -0.3021324947462749 -0.3345683732046545 0.004726540866106806 -0.005411233297488894 -0.0025293531491244444
629 -0.08211574794226148 -0.3115043907114663 -0.32307597347668526 0.004726540866106806 -0.005411233297488894 -0.0025293531491244444
499 0.12645181700564143 0.17295586679635142 -0.2914339246767603 0.008260868959830246 0.00538703550128212 0.011121099006130154
513 -0.11805949372022573 -0.032735036266210604 -0.2550627071214622 -0.30203847463676503 0.014418186778174837 -0.04315694101088809
484 0.00869995680760615 -0.017864313268702553 -0.11153373943959125 0.008260868959830246 0.00538703550128212 0.011121099006130154
638 -0.15617114998916304 -0.4022564885281666 -0.26730879464644747 0.004726540866106806 -0.005411233297488894 -0.0025293531491244444
622 -0.14724494776055852 -0.4106298431639915 -0.23271487680623584 0.004726540866106806 -0.005411233297488894 -0.0025293531491244444
662 1.8062633414261864 -1.0034875534640284 -0.23969473051690499 0.06453673560499372 0.0721796165451376 0.1726084015111832
608 -0.1823461670978877 -0.37096045321408716 -0.38317534989904817 0.004726540866106806 -0.005411233297488894 -0.0025293531491244444
630 -0.08496716774203357 -0.3252781899917784 -0.2989370393347132 0.004726540866106806 -0.005411233297488894 -0.0025293531491244444
636 -0.1608508978240425 -0.3895406799046595 -0.3032576009426839 0.004726540866106806 -0.005411233297488894 -0.0025293531491244444
631 -0.08863275838096583 -0.34771921545691364 -0.2577770849371068 0.004726540866106806 -0.005411233297488894 -0.0025293531491244444
609 -0.1829517997177175 -0.4110035970967919 -0.2986398052042421 0.004726540866106806 -0.005411233297488894 -0.0025293531491244444
637 -0.07251175799478099 -0.33697628820345465 -0.25063530583533883 0.004726540866106806 -0.005411233297488894 -0.0025293531491244444
648 -0.07275914941524314 -0.3780076473757075 -0.16331616204087296 0.004726540866106806 -0.005411233297488894 -0.0025293531491244444
632 -0.09104741010046086 -0.3659876575119555 -0.22320624932953284 0.004726540866106806 -0.005411233297488894 -0.0025293531491244444
649 -0.09607804489536995 -0.43482647908611405 -0.08533486405377527 0.004726540866106806 -0.005411233297488894 -0.0025293531491244444
663 -1.2511515072418857 0.97013239675432 -0.5310077814208152 -0.41534449180582783 0.006289618909905585 -0.12882235923388866
664 -0.8778135050581395 -0.15710813157510034 1.3401358999269142 -0.215182463904858 -0.24248341513602978 -0.09916436021853431
635 -0.08390796648502716 -0.3811549513001236 -0.17741642467454705 0.004726540866106806 -0.005411233297488894 -0.0025293531491244444
640 -0.11020816415432008 -0.3564433471391792 -0.279430338559995 0.004726540866106809 -0.005411233297488896 -0.002529353149124445
639 -0.06784108756327331 -0.3496924990152013 -0.2147026018313485 0.004726540866106806 -0.005411233297488894 -0.0025293531491244444
487 -0.12220734697959151 -0.07821738082685009 0.014940469561015829 0.008260868959830246 0.00538703550128212 0.011121099006130154
514 1.2478068271531149 -1.2057038219134752 -0.7775466034496723 -0.1751865382712585 0.10658976084471607 -0.2388026195788791
500 0.05198806195918446 0.2133515052043267 -0.25568902354101475 0.008260868959830246 0.00538703550128212 0.011121099006130154
516 -0.8165042799694169 1.3159234829073903 -1.3318916301055381 0.12227572289512005 -0.010262382194575315 -0.5464191407633326
501 0.0006912272687432872 0.2515000748030266 -0.23606427867001076 0.008260868959830246 0.00538703550128212 0.011121099006130154
515 -0.14633762040641454 1.5998965728977044 1.156576931844318 -0.2552842587032419 -0.013145652116291137 0.15270455048594697
610 -0.19153892442304254 -0.45755595079975686 -0.2150934444815254 0.004726540866106806 -0.005411233297488894 -0.0025293531491244444
611 -0.18165064470478212 -0.4838458916088968 -0.14037143053708812 0.004726540866106806 -0.005411233297488894 -0.0025293531491244444
665 1.9614900160040802 1.4725796913217897 2.3743200213891757 0.11309784537599472 0.20193105593838856 -0.25237363349858327
634 -0.17224660179609025 -0.43371778404263234 -0.2300411121972517 0.004726540866106806 -0.005411233297488894 -0.0025293531491244444
633 -0.1600172789088391 -0.4954020961780732 -0.07522263685427483 0.004726540866106806 -0.005411233297488894 -0.0025293531491244444
621 -0.15944900277070906 -0.4327850657836697 -0.2081219829129009 0.004726540866106806 -0.005411233297488894 -0.0025293531491244444
599 2.8524104703473614 0.7588502366152328 -1.241410053002538 -0.15401565190663521 -0.25149135668477357 -0.4796780393606679
613 -0.21134318256450552 -0.5135726706669682 -0.13226044648536447 0.004726540866106806 -0.005411233297488894 -0.0025293531491244444
600 1.9303317962177495 2.246211954470375 -0.47617248846482985 -0.11800175417445273 -0.20457450860107895 0.45915929873452244
614 -0.19101330871636402 -0.47127334175829033 -0.18476460453541999 0.004726540866106806 -0.005411233297488894 -0.0025293531491244444
596 3.039797973086538 -0.6742948952694288 -4.242324609160082 -0.23539874733788174 -0.017844434794581775 -0.0563956314430725
595 1.6640486495510336 0.10380189976745997 -0.8168179217338394 0.5898585500058706 -0.019783288614801036 -0.059216208469378695
650 -0.12864302523840948 -0.4800833279363256 -0.04936691032068857 0.004726540866106806 -0.005411233297488894 -0.0025293531491244444
612 -0.229955638321402 -0.5579387169564951 -0.07212550872117873 0.004726540866106806 -0.005411233297488894 -0.0025293531491244444
598 0.724234073785988 2.141092875466552 1.1267556870823423 0.20211961886508673 0.2254426223034209 -0.07517977470627965
597 0.7845109297824204 0.8072406365443261 0.4874167757902089 -0.1427804683733943 -0.1518819901537865 0.17984788551381367
651 -0.09901657068171377 -0.4511249580234209 -0.05595746780745242 0.004726540866106806 -0.005411233297488894 -0.0025293531491244444
502 -0.24953728768064332 -0.08947442483640192 0.11497537167815963 0.008260868959830246 0.00538703550128212 0.011121099006130154
653 -0.039947797912977395 -0.34785664952969314 -0.1665066575049043 0.004726540866106806 -0.005411233297488894 -0.0025293531491244444
652 -0.0744748157757453 -0.40532479704975655 -0.10808057629771733 0.004726540866106806 -0.005411233297488894 -0.0025293531491244444
594 -1.8561059541631153 -1.5190918070189854 -0.2221976949666577 0.06065403302563574 -0.04889229251508688 0.5416308216767691
461 0.27541318950861365 -0.05142512584742906 -0.2933943428986041 0.008260868959830246 0.00538703550128212 0.011121099006130154
518 -0.15728134960494103 -0.933606558020778 -0.7624594111623518 0.2617633951748097 -0.30855565454679423 0.061439742059165345
517 -0.4621229171665004 0.004248230286060611 1.0589647836706322 0.02229041851948954 -0.10996195901039589 0.1857296980781047
462 0.19769334384670922 0.00020798302262933777 -0.26067418908412276 0.008260868959830246 0.00538703550128212 0.011121099006130154
463 0.06893057798520169 0.011038216599701944 -0.17027399730755627 0.008260868959830246 0.00538703550128212 0.011121099006130154
485 -0.09664862179778774 -0.01827392875116282 -0.03308129372100733 0.008260868959830246 0.00538703550128212 0.011121099006130154
741 0.9159915095620835 0.8543692246362943 0.9513011364134584 0.23400269059043632 -0.1881307755836203 -0.07748630126991546
740 -1.7008368450376974 0.35356360180177426 1.528320398732345 0.158216623089869 0.005151873533679449 -0.07083348522369817
666 0.41520215914987135 0.3475493266202489 0.5966272444557091 0.04605853860244829 -0.31009206885675306 0.4976218199813001
667 0.8252234001303727 -1.4956121336428465 0.015282486981859106 0.009866982916366503 -0.08861219893724959 0.19165159908309354
668 -1.3957923927089422 -0.7767924553149064 0.5747498476204322 0.17873678088596967 0.21062239785550727 -0.26422467653309534
669 -2.592091544332209 0.8776456591598352 1.6481030934241174 -0.012678175806339238 -0.30165332751075025 0.15263501050541353
670 1.653641844103678 -0.4851202374710979 0.5611866728444046 0.3764798477189146 0.27583119211781454 -0.10111928642020857
671 -1.7465753411340161 1.2156571587253453 2.196445948109197 0.02511543068838993 -0.3070044156873569 -0.04555931878848467
686 -0.0159741357215257 -0.28067616149611185 0.09584276970309832 -0.002841854833803937 -0.0006217682249269957 0.0027653774995484125
672 -1.4320176161910858 -1.1237705931494244 -0.4836924023989307 0.17050046001442506 -0.058387901450520134 0.4418873683274941
687 -0.029223919803733803 -0.23004314819039032 0.09361089932153704 -0.002841854833803937 -0.0006217682249269957 0.0027653774995484125
673 1.7203347411826286 0.8369836925840068 -0.6614964724885289 -0.23459993936255566 0.23853852510059353 -0.10479185083723423
739 -0.5664672071102806 1.3536708264621387 -0.2374939654718093 -0.1355559074690071 -0.18656473218106678 0.04918963986475902
724 -0.06484160246969314 -0.2972711178480449 0.04189264420591814 -0.002841854833803937 -0.0006217682249269957 0.0027653774995484125
707 -0.06807849947752102 -0.33105088207363326 0.030971178527489207 -0.002841854833803937 -0.0006217682249269957 0.0027653774995484125
738 -1.1955854474452003 1.5795960914112486 1.688984457871164 0.1594039400688707 0.00513460084457934 -0.09058626407311085
723 -0.11916856013258925 -0.38049420383750565 -0.03264864273318466 -0.002841854833803937 -0.0006217682249269957 0.0027653774995484125
737 -0.9369628021904322 1.3696331420233565 -1.8459793249998984 -0.16834278676387082 0.29096742670125536 -0.33224137278562565
685 -0.08198304648773008 -0.3420530025612632 0.014208377403080988 -0.002841854833803937 -0.0006217682249269957 0.0027653774995484125
722 -0.1460481925578278 -0.347057207374068 -0.052753656030520915 -0.002841854833803937 -0.0006217682249269957 0.0027653774995484125
736 0.24312200418491506 -0.6597650424319296 -0.2725180034935445 0.027907822711949477 -0.07145701036905447 -0.48516427952605023
684 -0.09891766199514584 -0.3337478582323682 -0.0013272390175475598 -0.002841854833803937 -0.0006217682249269957 0.0027653774995484125
721 -0.1697270433648531 -0.3179206559388804 -0.07053628236871406 -0.002841854833803937 -0.0006217682249269957 0.0027653774995484125
708 -0.08702886975673348 -0.24915121772684162 0.029911072824809655 -0.002841854833803937 -0.0006217682249269957 0.0027653774995484125
735 1.3537292200324358 -0.3371623020090286 -0.942131829185792 -0.37367795626861655 -0.11196810758084949 -0.24806587371565475
706 -0.13470132768720866 -0.2776364759294027 -0.02548441421565594 -0.002841854833803937 -0.0006217682249269957 0.0027653774995484125
705 -0.14219139970536193 -0.26145470226098355 -0.029543312026959465 -0.002841854833803937 -0.0006217682249269957 0.0027653774995484125
709 -0.11830165096447037 -0.26175550334702696 -0.005060517402574578 -0.002841854833803937 -0.0006217682249269957 0.0027653774995484125
695 -0.0770616668220061 -0.21968348540237106 0.0467794546161518 -0.002841854833803937 -0.0006217682249269957 0.0027653774995484125
696 -0.08548855278236311 -0.2011633854513917 0.04228358490925122 -0.002841854833803937 -0.0006217682249269957 0.0027653774995484125
711 -0.14220481719289207 -0.2430173383259278 -0.025411638685325866 -0.002841854833803937 -0.0006217682249269957 0.0027653774995484125
714 -0.12354613021302228 -0.21404789251453138 0.0002765578437370652 -0.002841854833803939 -0.0006217682249269963 0.0027653774995484146
710 -0.11093476210644809 -0.23040848275054757 0.00955817753903523 -0.002841854833803937 -0.0006217682249269957 0.0027653774995484125
704 -0.1492036503274543 -0.23482387135291316 -0.030761805294061806 -0.002841854833803937 -0.0006217682249269957 0.0027653774995484125
720 -0.18420402957998538 -0.2692593866811689 -0.07447262098689636 -0.002841854833803937 -0.0006217682249269957 0.0027653774995484125
734 -2.7754919956376733 1.171067059100876 1.4495438325609653 0.20955912497034546 0.1393234880723823 0.02232121248185711
683 -0.12094033586906844 -0.3027383118981811 -0.016986761679089177 -0.002841854833803937 -0.0006217682249269957 0.0027653774995484125
682 -0.13593193125188674 -0.2610946208767369 -0.023029775322619662 -0.002841854833803937 -0.0006217682249269957 0.0027653774995484125
713 -0.12413661530670388 -0.21548449106587003 -0.0006532624970253132 -0.002841854833803937 -0.0006217682249269957 0.0027653774995484125
703 -0.1516841508141044 -0.21287926622483647 -0.028376873804583244 -0.002841854833803937 -0.0006217682249269957 0.0027653774995484125
733 -1.2360848761556766 0.12876958306094397 0.14439673289663157 0.001824857283159051 0.11303669239838325 0.2108980143038719
719 -0.19563979606311355 -0.2179723961348716 -0.07469326615545349 -0.002841854833803937 -0.0006217682249269957 0.0027653774995484125
702 -0.15208463030291175 -0.19476635502432815 -0.024715916819163658 -0.002841854833803937 -0.0006217682249269957 0.0027653774995484125
701 -0.1514394035743915 -0.1797143585672869 -0.02066855119986774 -0.002841854833803937 -0.0006217682249269957 0.0027653774995484125
718 -0.20001076027710812 -0.16979206447994027 -0.06835223187987281 -0.002841854833803937 -0.0006217682249269957 0.0027653774995484125
732 -0.3143299302851653 -2.7807541810383047 0.286356290310859 0.23290875133682695 0.021678536541206855 0.20803336182669754
725 -0.06946164484491135 -0.25744301311477075 0.046099795029891144 -0.002841854833803937 -0.0006217682249269957 0.0027653774995484125
726 -0.08384126553555099 -0.2092269660051556 0.04216341074044163 -0.002841854833803937 -0.0006217682249269957 0.0027653774995484125
727 -0.10705019098924295 -0.16651355315701843 0.027916330872595964 -0.002841854833803937 -0.0006217682249269957 0.0027653774995484125
728 -0.1330502283143663 -0.13902360155581656 0.00737810296325952 -0.002841854833803937 -0.0006217682249269958 0.0027653774995484133
729 2.605025556440504 -1.9056496616216212 3.37029859752649 0.15333206642669484 0.016694673170209 -0.2130628464803535
82 2.9345910837106586 3.5724082110093742 1.806584677159327 0.31191002161785863 0.45834626001911644 0.10097152102980508
227 0.5366653579677633 1.757611176558004 -0.6621033639220935 0.44692600288229145 -0.056502288565279016 -0.6097063598371358
228 1.885251025871871 2.4966769665624557 -0.35874669759065025 -0.04004496349515042 -0.4403771018707158 -0.110457635585877
242 -0.30381156780884966 0.15955604770264625 0.24413055190615207 0.0022077594935185295 0.0010408829495171842 -0.0045877449621186395
243 -0.34832929952407093 0.12111626834327306 0.21398594777395127 0.0022077594935185295 0.0010408829495171842 -0.0045877449621186395
229 2.0847751165915653 -0.012739035422975747 -0.061552379619099096 0.2344766641826167 -0.21164892158255924 0.09965526795171306
135 -0.5755036576188909 0.37445210236258364 0.20815383386669642 0.018463069465470747 0.011431200298507168 0.013098578907855433
134 -0.5973000997640237 0.16392780751446 0.42260263990106645 0.018463069465470747 0.011431200298507168 0.013098578907855433
281 -0.2733864718114024 0.05482295181211917 0.23500981839142382 0.0022077594935185295 0.0010408829495171842 -0.0045877449621186395
244 -0.39060350983816444 0.08429066334541796 0.1852872222373297 0.0022077594935185295 0.0010408829495171842 -0.0045877449621186395
230 2.7701892027544197 0.3400712873901577 -1.4860950287964494 -0.27122093984970386 0.28270469971097806 0.5343215111100684
282 -0.3128650739356442 0.014482845732619355 0.20685904098402838 0.0022077594935185295 0.0010408829495171842 -0.0045877449621186395
231 -1.5862642201494574 0.9026336017525775 1.0717330341379894 0.48704965503331404 -0.3194191864457566 -0.025869730078954677
245 -0.4201021479285479 0.0317239246039918 0.15916508132776988 0.0022077594935185295 0.0010408829495171842 -0.0045877449621186395
232 2.053229277368861 1.1739243488213433 0.6598115716886139 -0.06120987427084155 0.45342545716761484 0.19456988984579615
246 -0.44636374117261685 -0.01893220118962849 0.13503418906135065 0.0022077594935185295 0.0010408829495171842 -0.0045877449621186395
283 -0.3429935097004889 -0.03733534315799952 0.18060365617724533 0.0022077594935185295 0.0010408829495171842 -0.0045877449621186395
284 -0.36574656411097717 -0.08346937014010115 0.1591871662086834 0.0022077594935185295 0.0010408829495171846 -0.004587744962118638
271 -0.3839142521518066 -0.1279805565229158 0.14034548659706028 0.0022077594935185295 0.0010408829495171842 -0.0045877449621186395
285 1.8064392048693976 0.15981066570197688 0.5581084010433145 -0.23471405176858293 0.0977107987994938 -0.2295689343687663
379 -0.7787699874389191 -0.5301968177601399 -1.82619785000871 -0.17052023738502067 0.24455877841655996 0.2724331273171373
380 -0.6505885814492511 0.8715726753772179 -0.054112984471986224 0.3649821304535978 -0.29307309284965244 0.274813184350949
214 2.2566948065898504 0.21518609951401962 -0.29234519219654254 0.3783040804834447 0.3023949440786095 -0.11326732975348272
200 0.29741231924921196 0.08674859488344541 0.2832198290503849 -0.006307918351240355 0.004556391849184511 -0.012103253287817355
201 0.1462130550992341 -0.0038172262167981696 0.3279267546250549 -0.006307918351240355 0.004556391849184511 -0.012103253287817355
215 -0.1837397095199251 0.8095719810251334 0.3849426122569164 -0.07161800220995024 0.17912816693168204 0.3959833035689784
213 1.6493972646749138 0.7980659672873278 -0.7174088055690366 -0.1649234896794721 -0.15380610590368493 0.09832930579474258
199 0.447394022409487 0.1288641197964813 0.22090786338771273 -0.006307918351240355 0.004556391849184511 -0.012103253287817355
164 -0.1173514492984288 0.0015167129783725808 0.4672981162734492 -0.006307918351240355 0.004556391849184511 -0.012103253287817355
176 0.1706349707436365 0.22624608729305615 0.40180830823238 -0.006307918351240355 0.004556391849184511 -0.012103253287817355
163 0.025844494869744467 0.12199111516067748 0.43802171170051973 -0.006307918351240358 0.004556391849184514 -0.012103253287817356
162 1.230869570611189 1.9546895023376423 -0.9037210644701557 0.658263026022494 0.12132016731608097 0.10445105833652166
216 1.216503710275125 2.806989198813931 -4.13175485999895 0.39541366208986944 -0.2866266372880456 0.04107463147861843
202 0.01783448796788048 -0.14064224085861876 0.3433253531343384 -0.006307918351240355 0.004556391849184511 -0.012103253287817355
185 0.20152451534876165 -0.07497984526505808 0.2723098938907951 -0.006307918351240355 0.004556391849184511 -0.012103253287817355
184 0.25944913889260546 -0.043185096024496855 0.25409045699143645 -0.006307918351240355 0.004556391849184511 -0.012103253287817355
218 1.4245725297378398 0.40302841148558066 1.4307281164734929 0.11046996033985283 -0.1552123789294259 0.026222539517209834
364 -0.7912579779047306 0.492575904567783 1.8209336084202108 -0.11055825556966264 0.03493068281135127 0.04563533612209622
350 0.11671714736065353 0.03925617311789607 0.08214741142782761 -0.002108041835534518 -0.0032667378293721972 -0.006925173606894957
365 0.30890960411215734 0.8108839419353963 -2.6436715893179823 -0.004711241362225435 -0.10816161648443876 0.026241870340332388
351 0.08298877162917813 -0.04493792026677799 0.13213039764659287 -0.002108041835534518 -0.0032667378293721972 -0.006925173606894957
366 -0.682634884629733 1.4371211683772762 0.5669004979366103 -0.015119249785662828 -0.49957504778729767 0.3207240217340652
352 0.07453372114462668 -0.12053420940559276 0.17036436442676053 -0.002108041835534518 -0.0032667378293721972 -0.006925173606894957
204 -0.11466414750709683 -0.43234641874752777 0.30256540599056153 -0.006307918351240355 0.004556391849184511 -0.012103253287817355
217 -2.401222701887059 -0.7444443679893012 -0.33857018313701254 0.19576389173458994 0.05501487278311786 0.39194473126485024
203 -0.08412230223395686 -0.2946268070422798 0.33849368408461467 -0.006307918351240355 0.004556391849184511 -0.012103253287817355
313 -0.03322826484481703 0.019381945407118312 0.13716626223159697 -0.002108041835534518 -0.0032667378293721972 -0.006925173606894957
312 -0.019550485627146785 0.10575958557775422 0.09225671147958117 -0.002108041835534518 -0.0032667378293721972 -0.006925173606894957
311 0.03783771976410916 0.1725118052792602 0.043299276132844275 -0.0021080418355345176 -0.003266737829372196 -0.0069251736068949524
335 0.13056373423256074 -0.0017512203808338067 0.09727645008710323 -0.002108041835534518 -0.0032667378293721972 -0.006925173606894957
336 0.12426279222265622 -0.036373424443378384 0.11552643489350303 -0.002108041835534518 -0.0032667378293721972 -0.006925173606894957
334 0.1491961222189539 0.043205029239398805 0.07039797089821836 -0.002108041835534518 -0.0032667378293721972 -0.006925173606894957
314 -0.03941045253781508 -0.05975044668844353 0.17637641124633063 -0.002108041835534518 -0.0032667378293721972 -0.006925173606894957
340 0.08620325050382298 0.05787057887523922 0.08265515143265387 -0.002108041835534518 -0.0032667378293721972 -0.006925173606894957
338 0.0893316312840437 -0.0066388964511639795 0.11213322626911375 -0.002108041835534518 -0.0032667378293721972 -0.006925173606894957
339 0.1778910976258275 -0.06407648918552314 0.11226990111454593 -0.002108041835534518 -0.0032667378293721972 -0.006925173606894957
315 -0.0019306603584639537 -0.12253218707407762 0.19458281639476346 -0.002108041835534518 -0.0032667378293721972 -0.006925173606894957
367 1.1892658242078584 0.5928650420045771 -0.9742493375554423 -0.06362066446084519 -0.015080563117622063 -0.5699222644821186
353 0.04891036048005959 -0.19490793733929546 0.21324770622553946 -0.002108041835534518 -0.0032667378293721972 -0.006925173606894957
337 0.0680605956777799 -0.16933831812085087 0.19535664004096076 -0.002108041835534518 -0.0032667378293721972 -0.006925173606894957
363 -1.9073896464105036 0.6226584239756989 1.353412075543477 0.3623073969120814 -0.08875510123597614 -0.27883178741830567
349 0.16460147849340417 0.11450468364993555 0.032075117368931295 -0.002108041835534518 -0.0032667378293721972 -0.006925173606894957
310 -0.9394619818875449 -0.09361188315770107 -0.058689655992104184 0.11398119347192072 -0.11873485399043873 -0.34865965669401666
324 0.09696860358798577 0.2304613590081046 -0.002036248152284051 -0.002108041835534518 -0.0032667378293721972 -0.006925173606894957
333 0.1697111733356842 0.07277367110663283 0.050205034966067985 -0.002108041835534518 -0.0032667378293721972 -0.006925173606894957
341 0.17475361447925075 0.00043862342805785215 0.08279193784637964 -0.002108041835534518 -0.0032667378293721972 -0.006925173606894957
205 -0.17237789216224694 -0.5661384290321281 0.2822770396911545 -0.006307918351240355 0.004556391849184511 -0.012103253287817355
219 2.218390846382975 -1.5385959740027861 -0.05154430316199322 0.19527385245097229 0.23398713557698014 0.09957146098760399
187 0.08740497773998612 -0.2113026679973492 0.2804660916348831 -0.006307918351240355 0.004556391849184511 -0.012103253287817355
186 0.14431072636196574 -0.12899200119275586 0.2817948943066345 -0.006307918351240355 0.004556391849184511 -0.012103253287817355
220 -0.358964616220867 1.859089097333216 -2.811481273879932 -0.5360208897136967 -0.14632434926618443 -0.4358319101247604
165 -0.18082023701657632 -0.15772466865380042 0.44042846438648287 -0.006307918351240355 0.004556391849184511 -0.012103253287817355
188 0.06289466990092946 -0.2748169553893598 0.2693296676039282 -0.006307918351240355 0.004556391849184511 -0.012103253287817355
193 0.17531830489619557 -0.20988844186250386 0.23518022442055 -0.006307918351240355 0.004556391849184511 -0.012103253287817355
221 -0.3724531596591481 -2.238933908307543 0.8653599495187083 -0.04925027410880889 -0.23176797196035112 0.44778622358462433
222 0.09492835592471327 -0.27135550156690064 0.8958069455485239 0.1698183577715936 -0.24833474982229073 0.06472451036336392
166 -0.21232755903795733 -0.30253154990290254 0.4023352949147504 -0.006307918351240355 0.004556391849184511 -0.012103253287817355
344 0.16693842335430742 0.0420659834330351 0.06553447563603357 -0.0021080418355345167 -0.003266737829372195 -0.006925173606894951
342 0.14882575601340836 0.04406678913663206 0.0701042026382654 -0.002108041835534518 -0.0032667378293721972 -0.006925173606894957
325 0.1542284623971643 -0.009655049121097 0.09380123025566421 -0.002108041835534518 -0.0032667378293721972 -0.006925173606894957
362 0.4493472903785303 1.2820418311458492 1.8496540579883665 0.02191181399942717 0.15319325382647433 0.03382589874790958
348 0.22711674011994604 0.16501706658431858 -0.010782364031407782 -0.002108041835534518 -0.0032667378293721972 -0.006925173606894957
323 0.163884769932971 0.2531076406824722 -0.03308840010916604 -0.002108041835534518 -0.0032667378293721972 -0.006925173606894957
309 -1.8101866407950804 -0.9906766250672296 -1.1298452442884104 0.11422121866692704 -0.16016606695195906 0.018953995096221164
332 0.19316222665534036 0.09044704733986413 0.03472959791820718 -0.002108041835534518 -0.0032667378293721972 -0.006925173606894957
331 0.2174710960554589 0.10042888886247722 0.022621284431996985 -0.002108041835534518 -0.0032667378293721972 -0.006925173606894957
330 0.19336158055081248 0.12459681848245474 0.018559808976577503 -0.002108041835534518 -0.0032667378293721972 -0.006925173606894957
452 2.0503136882334703 -0.807980150692458 -1.835362904458121 -0.04529062715657859 -0.0066209432641073165 -0.17678666599616838
466 -0.23453937126830063 -0.513647307761227 0.30930315849609075 0.008260868959830246 0.00538703550128212 0.011121099006130154
465 -0.20048208610198825 -0.4076402063867286 0.2326554469786364 0.008260868959830246 0.00538703550128212 0.011121099006130154
451 2.5901261709108665 -1.3209321432432417 2.210853105178517 -0.07184989232833365 0.22954430506986853 -0.021797628173974404
198 0.5492838579982086 0.07323940375411672 0.14686489781533796 -0.006307918351240355 0.004556391849184511 -0.012103253287817355
212 -1.0427330129321843 1.77202111726697 0.5766051862919984 -0.26244433196284694 -0.1880834354964466 -0.030398000859769125
183 0.31527723104092864 -0.025748387880874204 0.2315584512876945 -0.006307918351240355 0.004556391849184511 -0.012103253287817355
226 -0.4360972651074179 0.8349568886148978 0.03953936353216986 0.098007120116431 0.13188229517234418 0.29486500787917463
354 0.15758469755706941 -0.17535500763038694 0.17094344631922065 -0.002108041835534518 -0.0032667378293721972 -0.006925173606894957
368 0.32766065786761955 -0.06679610018772475 1.23559854471252 0.29965154982212494 -0.05761218295774652 0.03722105516158629
316 0.07943295609175831 -0.13718719981881938 0.17672856033377907 -0.002108041835534518 -0.0032667378293721972 -0.006925173606894957
302 1.309874840205677 -0.8553730822790984 0.44252923184282167 -0.2109934876291653 -0.16233777967476207 0.5516295421516607
301 1.0696593234692078 -0.07774304107664087 3.489355331803075 0.14844897409917435 0.34265729748709706 -0.1637610309413162
519 -0.9657593025751081 0.3240846085914015 1.0125917485083868 -0.06023614692577363 -0.012043487457371278 0.11105898443537995
225 -1.7662421488943265 -0.9813018870138785 0.08036891872732657 0.11688475835048583 0.040593966878882434 0.4547601772943462
224 0.23548459902275448 -1.1915632234026785 0.7184634872001017 -0.03254934460707483 -0.0956237303209525 -0.21966283910844428
223 -1.4088716581735323 -0.5663034710288708 1.9452378404902713 0.04864723758919738 0.19237947701518374 -0.03872213832064485
374 0.2248280675769129 1.9454346574516104 -0.6652955099082286 -0.15866943214265872 0.11745359641508314 -0.07961666380660846
446 1.6430734469017907 -1.4209450868299733 -1.6016642477721257 0.20547171508971715 -0.09577543534695517 -0.3098809186671592
445 -1.246816636763429 -1.638730878983024 0.9127359785803466 0.09799598057835898 0.38811182122364524 -0.19533641779384275
447 -0.06798802715088142 -1.5733985524585914 2.0578820186356945 0.5090312447128753 0.262704014627653 0.09316860932998883
372 -1.5425124979473304 -0.5636563415683016 -0.6344150443896612 0.14379594742878538 -0.38080239446807773 -0.15301864346810135
373 -1.0299876287708152 1.93821041273496 0.35566305521149566 -0.17358315273630215 0.13978031730231566 -0.04904414210304031
369 0.35480218185051093 -1.3004735836149406 0.5918263477517404 0.1309044783138986 0.3644655130152683 -0.3393998608539635
370 -3.3534107872611707 -1.6933044690323409 -0.5946169832482604 -0.11097898182017282 -0.2555705316789316 -0.03796082359782043
371 -0.5607571891913578 -0.8029290546664757 -0.8762743730153899 0.0992595604091863 -0.23425023708270054 0.027226754779712446
300 -0.2757282661962869 -0.48635145952765146 1.0897421398466731 0.1317907801414245 0.1604048863453797 -0.19889340701510733
448 0.8036420375683568 0.48677213437413014 -2.6401644209640973 0.08479483089062015 -0.1723702643700609 -0.15268694476280717
444 -2.5097725041852423 0.20327170421714172 -0.5956104307230115 0.04118689061527878 0.3161422981471783 -0.07068853186021871
449 -1.4679595204042335 -0.26978935980208896 0.5556306989815677 -0.3553061137080352 -0.07013720963775223 -0.02941674688460568
443 0.08232631214631875 -0.9598142308882001 -1.1734719208538325 0.39060976231856825 -0.17182913280278297 0.15229275657235306
450 0.5104465928718624 -0.5386518527433477 0.3197561940593658 -0.34354654474505353 0.1489897296868491 0.35845704759784747
464 -0.1788767784264605 -0.2977318053799217 0.16336741409335923 0.008260868959830246 0.00538703550128212 0.011121099006130154
299 -2.383436089682235 -0.08007793018548354 0.5473337175178508 0.10928270457016183 0.010593992859363889 0.0982642532391296
298 -1.5400970416022233 1.025628062316824 0.21948808014841983 0.05751001098174165 -0.23179297304135454 -0.11497073285009204
296 -0.09464373240384236 0.42649423632536543 -0.12263562081984718 -0.29210958600059295 -0.2520283900857491 0.33138008463166485
297 -1.470880344554823 2.1844294974533147 4.435074735308457 -0.1742018913759113 0.3238432513681909 0.2963467951510477
280 -0.24556433783115367 0.08105143527959126 0.25434946398864766 0.0022077594935185295 0.0010408829495171842 -0.0045877449621186395
393 0.1441182052545216 0.137247295257622 0.20224362741313115 0.008867130069137332 -0.008293523737896512 -0.0067219738368147625
394 0.06414453924933322 -0.0029887815097647402 0.26977056875884997 0.008867130069137332 -0.008293523737896512 -0.0067219738368147625
395 -0.032405609949035186 -0.1435481995259106 0.31582997724235373 0.008867130069137332 -0.008293523737896512 -0.0067219738368147625
381 -3.2596969199284973 -0.9096100048795136 0.3353055455375783 0.004693848269603772 -0.2113261401992019 0.14212271623315972
382 0.4823322431716964 0.8180907454942907 0.40722536121159436 0.1722693690424118 0.30651550520775844 -0.2714866448437261
396 -0.1278333781096123 -0.2659644861117275 0.34098508053823623 0.008867130069137332 -0.008293523737896512 -0.0067219738368147625
392 0.20724576386899946 0.2663356188674166 0.12624856772341742 0.008867130069137332 -0.008293523737896512 -0.0067219738368147625
378 -0.8114288367013464 -0.38803123400664563 1.0545964562211558 -0.018944532970666443 0.1808458947046467 -0.2846112990999228
432 0.23037155669304377 -0.006725817346926483 0.49365566808201844 0.008867130069137337 -0.008293523737896515 -0.006721973836814763
433 1.1588136133245117 -1.0543738287601485 -1.3011921309551635 0.02041195632963842 0.2790691666566264 0.3119408783075254
419 0.1372273343630313 -0.14963235691639903 0.5471037850121263 0.008867130069137332 -0.008293523737896512 -0.0067219738368147625
401 0.09816643192312607 0.02576813429328323 0.27916965081856543 0.008867130069137332 -0.008293523737896512 -0.0067219738368147625
402 0.06453429009988845 -0.03458952970098364 0.30927347864691057 0.008867130069137332 -0.008293523737896512 -0.0067219738368147625
416 0.07166717386583643 0.037827649859928994 0.2293348471312206 0.008867130069137332 -0.008293523737896512 -0.0067219738368147625
404 -0.007686023505483391 -0.1345807055654482 0.3373741944225179 0.008867130069137332 -0.008293523737896512 -0.0067219738368147625
403 0.02834746849770739 -0.0883113876844934 0.3278201516214681 0.008867130069137332 -0.008293523737896512 -0.0067219738368147625
420 0.04207880489594193 -0.2693739676896568 0.5693272432279258 0.008867130069137332 -0.008293523737896512 -0.0067219738368147625
421 -0.04695393880839613 -0.36945048839532896 0.5753555441740139 0.008867130069137332 -0.008293523737896512 -0.0067219738368147625
435 -0.5683296268159994 1.2243567220849443 -0.29400021643430646 0.45086725112130005 0.0034713254016517855 -0.1229670033469629
375 -0.06082548932260706 -2.3343988685041444 1.2692542496335697 0.31806354779475915 0.24158154894097458 -0.01689911314190772
520 1.407682961310647 1.4600933812201422 -0.24111199136846828 -0.2504273129497238 -0.16485737735745218 -0.07381676554848424
377 0.45920916327215866 0.8796863234745235 3.2085842457642073 -0.17271213175742187 0.3366071870142079 -0.2832736080895047
391 0.23372008155665916 0.33571210645563465 0.07557530768019866 0.008867130069137332 -0.008293523737896512 -0.0067219738368147625
431 0.3226108417759136 0.13671214646698565 0.43835815748231777 0.008867130069137332 -0.008293523737896512 -0.0067219738368147625
430 0.3579541761879226 0.2423683869094082 0.35462254521689585 0.008867130069137332 -0.008293523737896512 -0.0067219738368147625
376 0.41992709305300097 -1.2777319209524054 0.5478332040216922 0.3446314798822354 -0.12668068761540227 0.037282241450337296
390 0.27189904420806554 0.4163310643213928 0.026471068201962933 0.008867130069137332 -0.008293523737896512 -0.0067219738368147625
400 0.1325991786044832 0.09649302068530444 0.23733091601856843 0.008867130069137332 -0.008293523737896512 -0.0067219738368147625
399 0.14806673933720366 0.1375273891058548 0.20710666334691816 0.008867130069137332 -0.008293523737896512 -0.0067219738368147625
429 0.3828515200602526 0.3173371452971183 0.2949693539769961 0.008867130069137332 -0.008293523737896512 -0.0067219738368147625
521 -0.5469888730679765 1.4042396123435028 1.7009577807491227 -0.18042149299116497 0.17150049308689527 -0.030554936652820032
414 -0.01403795674394269 -0.058615895391368245 0.23527034943572242 0.008867130069137332 -0.008293523737896512 -0.0067219738368147625
412 0.07890065536610799 0.07593986892400789 0.19185413412748942 0.008867130069137332 -0.008293523737896512 -0.0067219738368147625
418 0.06385592149010193 -0.054087236158382054 0.332434757226797 0.008867130069137334 -0.008293523737896512 -0.006721973836814764
406 0.010412752665747246 -0.17838182918653173 0.4152902758615797 0.008867130069137332 -0.008293523737896512 -0.0067219738368147625
405 0.021657949374334337 -0.17488836848650074 0.4258138994790262 0.008867130069137332 -0.008293523737896512 -0.0067219738368147625
417 0.18574135218664728 0.019379948742619106 0.40257369811407895 0.008867130069137332 -0.008293523737896512 -0.0067219738368147625
522 -0.4175666018799523 -2.1133652638275193 0.975842193379348 -0.06999332815560472 0.09773917732453559 0.08074717475609461
523 -0.898177628502942 0.9752453291375865 0.16030317418388657 0.3255320041756622 -0.3153960861614834 -0.02452757182136836
538 0.41489750325269015 0.20338478323136325 -0.36845524127996876 0.0009146192061261372 -0.016656340095952193 -0.0031935812572535553
524 -0.3816179696828471 -0.43050450042611044 -0.9289276337990802 0.06679552378474166 -0.4526034194590872 -0.08948917434337378
428 0.3409710757205845 0.31945542140826966 0.2371102593172866 0.008867130069137332 -0.008293523737896512 -0.0067219738368147625
407 0.009159779197986162 -0.17156487422818334 0.4052267352823882 0.008867130069137332 -0.008293523737896512 -0.0067219738368147625
413 0.19298924150325703 0.05748994449963918 0.3651147339351575 0.008867130069137332 -0.008293523737896512 -0.0067219738368147625
408 0.02515373258569381 -0.1466476369709579 0.39558206316063593 0.008867130069137332 -0.008293523737896512 -0.0067219738368147625
409 0.06330805479888105 -0.09303772780127181 0.37976889293688376 0.008867130069137332 -0.008293523737896512 -0.0067219738368147625
415 0.10005062939320677 -0.07706581981573722 0.40853094924339134 0.008867130069137332 -0.008293523737896512 -0.0067219738368147625
410 0.10160141084900809 -0.04161378901123311 0.36683616063510893 0.008867130069137332 -0.008293523737896512 -0.0067219738368147625
411 0.2524502170941071 0.2675102181680177 0.18442972236095656 0.008867130069137332 -0.008293523737896512 -0.0067219738368147625
525 -0.10825951339619552 -0.37192889214939095 -0.6795234837940969 0.01973407525171563 0.006975383696834439 0.07253803050688146
539 0.3384183655005763 0.1601164405106531 -0.16468934617074343 0.0009146192061261372 -0.016656340095952193 -0.0031935812572535553
389 0.12799720050697322 0.1538207015699966 0.1605298404484316 0.008867130069137332 -0.008293523737896512 -0.0067219738368147625
441 -0.5469157043990756 -2.5163941012458504 1.021258569585244 0.06006855528117071 -0.11292282312115026 -0.23939164943383678
427 0.2198675702419175 0.11331620608037873 0.33169258828193865 0.008867130069137332 -0.008293523737896512 -0.0067219738368147625
442 -1.449971569756173 -1.078155779546302 -0.9284106212663352 -0.20880742991125456 0.28863080001263486 0.11800475849398603
526 2.3725432881474195 0.8825258484384213 -2.657986279148754 -0.16200653393768535 -0.14991454661470083 -0.26740720425692377
540 0.2800783054074668 0.117654145328937 0.040067457454794494 0.0009146192061261372 -0.016656340095952193 -0.0031935812572535553
577 0.5864896253559762 0.1678192531648351 -0.13381802537241716 0.0009146192061261372 -0.016656340095952193 -0.0031935812572535553
578 0.5315351075018817 0.12571953042071538 0.07001735254385295 0.0009146192061261372 -0.016656340095952193 -0.0031935812572535553
576 0.5382208896138174 0.2041478020910213 -0.3371158676920919 0.0009146192061261372 -0.016656340095952193 -0.0031935812572535553
547 0.2141170683427642 0.14593279942722168 -0.12631261920340572 0.0009146192061261372 -0.016656340095952193 -0.0031935812572535553
548 0.18466068724385643 0.1294582142499925 -0.04882440086120289 0.0009146192061261372 -0.016656340095952193 -0.0031935812572535553
559 0.418031883032008 0.23605466961168764 -0.5379495897553382 0.0009146192061261372 -0.016656340095952193 -0.0031935812572535553
560 0.123166582704938 0.1719412528686267 -0.28800905504256324 0.0009146192061261372 -0.016656340095952193 -0.0031935812572535553
564 0.09406019607181083 0.132335179349564 -0.08977675119079365 0.0009146192061261372 -0.016656340095952193 -0.0031935812572535553
565 0.2804278732626152 0.13113191214974487 -0.03012663762827142 0.0009146192061261372 -0.016656340095952193 -0.0031935812572535553
549 0.12685215611556377 0.1112869430105543 0.029393142633156275 0.0009146192061261372 -0.016656340095952193 -0.0031935812572535553
541 0.17307138016377152 0.08257149267600078 0.1923973860996801 0.0009146192061261372 -0.016656340095952193 -0.0031935812572535553
550 0.07339786364373356 0.10081503748126136 0.06870114430646375 0.0009146192061261372 -0.016656340095952193 -0.0031935812572535553
551 0.018754565521193353 0.09708500668369317 0.07250591725724488 0.0009146192061261372 -0.016656340095952193 -0.0031935812572535553
552 -0.034721237164288876 0.09661034760883713 0.05966644022011312 0.0009146192061261372 -0.016656340095952193 -0.0031935812572535553
426 0.1391761329293848 -0.027757026699058163 0.3993055760375641 0.008867130069137332 -0.008293523737896512 -0.0067219738368147625
440 -1.6819436709623228 0.5566352504164094 -0.27994564425130586 -0.36526167928501363 -0.05107777504970752 0.18519735253917657
688 -0.04126261558067318 -0.18074751621057392 0.09232291307219967 -0.002841854833803937 -0.0006217682249269957 0.0027653774995484125
434 0.700271358837883 0.0576369390897242 -2.3425161523595963 -0.06794752716491226 0.1442697302330204 -0.5943757036214674
527 0.09123517094896172 0.7685438813392049 -1.1122897574660058 0.18816307150094108 -0.5304174311890004 0.5834914906726378
579 0.46492701017045546 0.08695100199778746 0.25314115689382427 0.0009146192061261372 -0.016656340095952193 -0.0031935812572535553
528 0.5582293192907821 -0.10067810891318694 -0.502390164750418 0.18822658468328965 0.0791699343111171 0.4831918905752173
542 0.04291529866722385 0.05275860149625622 0.31061276012377803 0.0009146192061261372 -0.016656340095952193 -0.0031935812572535553
529 0.09977194049057611 -2.7315317158011236 0.831751724256628 0.31900229260713436 -0.28007215040983313 0.044095716279173774
543 -0.10553670934802734 0.038596873946310895 0.3419586018718145 0.0009146192061261372 -0.016656340095952193 -0.0031935812572535553
580 0.31850568416444724 0.06311535467903118 0.3355235577171191 0.0009146192061261346 -0.01665634009595219 -0.0031935812572535527
581 0.34909702938012366 0.07072292223016932 1.273744696711663 0.11316020148439893 -0.25035073910401334 -0.08627068330663586
567 0.17279414031738266 0.04338762063351882 0.3966841342905508 0.0009146192061261372 -0.016656340095952193 -0.0031935812572535553
329 0.20406935266866089 0.10639390981611427 0.02388699654605826 -0.002108041835534518 -0.0032667378293721972 -0.006925173606894957
327 0.19951505457828028 0.05559755186002474 0.04923495820015068 -0.002108041835534518 -0.0032667378293721972 -0.006925173606894957
326 0.17789458419883816 0.017360302439534993 0.07385353600260589 -0.002108041835534518 -0.0032667378293721972 -0.006925173606894957
328 0.20822475107903193 0.08434082080278205 0.03302494889702648 -0.002108041835534518 -0.0032667378293721972 -0.006925173606894957
343 0.23738067117201375 -0.013367984954138469 0.07024093326784464 -0.002108041835534518 -0.0032667378293721972 -0.006925173606894957
361 0.4001281281907205 1.9103335766970084 1.2736384437988495 0.03469535269404721 -0.20777192416225188 -0.01097987963193708
347 0.2921844866923635 0.18919212741178024 -0.04199300652502855 -0.002108041835534518 -0.0032667378293721972 -0.006925173606894957
346 0.3404353832774686 0.1596434016625638 -0.04274200845381443 -0.002108041835534518 -0.0032667378293721972 -0.006925173606894957
360 1.7757063688520482 0.21686491522610496 1.3616583715797288 -0.05527360939271271 -0.13926151784140284 0.22554536193132713
322 0.2256105923180296 0.2534129524174418 -0.05202193113058434 -0.002108041835534518 -0.0032667378293721972 -0.006925173606894957
308 -1.8343698091963336 -0.5090239917186441 1.4518628918158334 -0.36778667063608406 -0.32297690748101643 -0.2302702785380123
321 0.255945914993693 0.20698930124614534 -0.039357155755597006 -0.002108041835534518 -0.0032667378293721972 -0.006925173606894957
307 -1.2630399196683608 -0.8371598780771478 -2.074486075996433 -0.019622846802797043 0.36588710209002445 -0.17079308437327578
345 0.3722407264978548 0.11405558422484399 -0.03091899024114675 -0.002108041835534518 -0.0032667378293721972 -0.006925173606894957
358 0.3680121804921649 0.04516059283187218 0.0028672857141902874 -0.002108041835534517 -0.003266737829372197 -0.006925173606894958
357 0.35747840127083275 -0.028196427886657986 0.04067771716032957 -0.002108041835534518 -0.0032667378293721972 -0.006925173606894957
359 -1.3822795904646952 0.8003971962302867 -0.8737787820170294 0.014720036257863467 -0.05629851890023576 -0.5251459372743521
356 0.2982174550168647 -0.09106121668351594 0.0883714438975294 -0.002108041835534518 -0.0032667378293721972 -0.006925173606894957
306 -0.2957217146989969 -0.7444971023648956 -1.4724017942191687 0.023824753905448734 0.20363559041646406 0.101743498665632
320 0.26230185076876256 0.14300380537932264 -0.011108728717363708 -0.002108041835534518 -0.0032667378293721972 -0.006925173606894957
319 0.23605409025615776 0.06868031877741998 0.031940982303037144 -0.002108041835534518 -0.0032667378293721972 -0.006925173606894957
305 -1.022297284537455 -0.5144392808154943 -1.179232840716245 -0.13402308213215072 0.05559102619986406 0.0726487301068729
317 0.13494801347268154 -0.06699400331613706 0.126718141317549 -0.002108041835534518 -0.0032667378293721972 -0.006925173606894957
303 -0.7532196921535081 0.493472419679268 -2.4469444899815227 0.16968764227292346 0.013658255733620716 -0.2768400043155735
318 0.19422551256360693 -0.0035620285530169604 0.07875182330217517 -0.002108041835534518 -0.0032667378293721972 -0.006925173606894957
304 -1.924513686540965 0.4059261103073072 1.1130784787948176 0.1838219588968012 0.015762823571229954 0.15796011431486118
355 0.23655931273188877 -0.15314281566910934 0.13642543795493345 -0.002108041835534518 -0.0032667378293721972 -0.006925173606894957
593 -1.4729311447621045 -1.0023996633875565 2.3102145966331893 -0.2543667292984146 -0.026957296354411048 -0.41899575223544894
712 -0.09287044734924768 -0.20287700989121593 0.034312250078012925 -0.002841854833803937 -0.0006217682249269957 0.0027653774995484125
681 -0.14598020004254803 -0.2097016892455582 -0.021800731316669153 -0.002841854833803938 -0.0006217682249269956 0.0027653774995484133
700 -0.1300070118968108 -0.16460712985636422 0.004753273010226066 -0.002841854833803937 -0.0006217682249269957 0.0027653774995484125
697 -0.09979427148599479 -0.1809378319213255 0.032129756241380314 -0.002841854833803937 -0.0006217682249269957 0.0027653774995484125
698 -0.11180794592822735 -0.16939738145778285 0.02237859807572877 -0.002841854833803937 -0.0006217682249269957 0.0027653774995484125
699 -0.12194544380197697 -0.16530958445362431 0.012879846078092099 -0.002841854833803937 -0.0006217682249269957 0.0027653774995484125
717 -0.19689976315793434 -0.13004435263606168 -0.05621831293223119 -0.002841854833803937 -0.0006217682249269957 0.0027653774995484125
731 0.213044108922746 -0.2106058478014794 -1.037823747321525 -0.3188670431688658 0.0792667444202992 0.11088024461754506
562 -0.021136905655313065 0.1558973763877419 -0.24565863078121403 0.0009146192061261372 -0.016656340095952193 -0.0031935812572535553
592 0.35242840069754133 -2.099008957198873 -1.4377638183843484 -0.023882371623992343 -0.06874452960540292 -0.37831771006375414
694 -0.1533587705675516 -0.1606914896485313 -0.018363891863368988 -0.002841854833803937 -0.0006217682249269957 0.0027653774995484125
680 -1.07402515745329 -1.0405276790457108 -1.020751208809075 -0.2621468323011258 -0.12422553489640778 -0.13847846279797796
679 -1.3231132135765897 0.866179589311151 0.5280117104769723 -0.1979447698151034 -0.25218366989387025 0.26839150377799925
693 -0.1503312270552042 -0.12105501631506653 -0.006340745353548796 -0.002841854833803937 -0.0006217682249269957 0.0027653774995484125
591 -1.7699327198516497 -0.4842942172863046 -0.17532485788876948 0.3754917183574615 0.18879912598641882 -0.13926169478805128
590 0.8640796243596185 -0.5524951787615034 0.02540704044831818 0.1503524241639475 -0.09493425444445813 0.2644691839993888
566 0.09370065944503211 0.13590707220984816 -0.10850916992461393 0.0009146192061261363 -0.0166563400959522 -0.0031935812572535588
561 0.30955769335779193 0.1707376634755165 -0.22835054988035086 0.0009146192061261372 -0.016656340095952193 -0.0031935812572535553
575 0.4004978519602355 0.2687808778239945 -0.7136569760445328 0.0009146192061261372 -0.016656340095952193 -0.0031935812572535553
589 -1.5174390918934189 -1.4809875383111784 1.9721231866205629 -0.014508034231622613 -0.3061127167172761 -0.169009216805967
537 0.23585130258381276 0.24845920422465678 -0.6548215197427197 0.0009146192061261372 -0.016656340095952193 -0.0031935812572535553
563 0.16525420499754154 0.1546937869946317 -0.18600012561900145 0.0009146192061261372 -0.016656340095952193 -0.0031935812572535553
536 0.05986953064177372 0.24364313671026588 -0.6801029338035508 0.0009146192061261372 -0.016656340095952193 -0.0031935812572535553
558 0.1804351672976175 0.1851415806360828 -0.3404549419027291 0.0009146192061261372 -0.016656340095952193 -0.0031935812572535553
556 0.049118996999506774 0.15001409912112987 -0.19485320205608608 0.0009146192061261372 -0.016656340095952193 -0.0031935812572535553
555 0.016079786187408962 0.1318926118923362 -0.10980155135945195 0.0009146192061261372 -0.016656340095952193 -0.0031935812572535553
534 -0.25701764000486843 0.18459233736800376 -0.4628737329624966 0.0009146192061261372 -0.016656340095952193 -0.0031935812572535553
557 0.11691745036804874 0.1719096246174086 -0.2896338032891371 0.0009146192061261372 -0.016656340095952193 -0.0031935812572535553
535 -0.0992000911056346 0.21798522809854892 -0.5918387882816575 0.0009146192061261372 -0.016656340095952193 -0.0031935812572535553
586 -0.16461827523408518 -2.2119468833285336 -1.5515148109762085 0.1568777689199586 -0.18520322246434662 -0.22347885192022152
572 -0.01124386340777829 0.17443664763841576 -0.3395181622883285 0.0009146192061261372 -0.016656340095952193 -0.0031935812572535553
574 0.26939457296761143 0.23923239303174818 -0.5970919022041701 0.0009146192061261372 -0.016656340095952193 -0.0031935812572535553
588 -0.5804266257866044 0.5048731440901171 -0.6901105390516296 0.3187596007129054 0.26233753873204213 -0.13037995915499323
573 0.11825810981817143 0.2145913025535663 -0.5118590399499116 0.0009146192061261372 -0.016656340095952193 -0.0031935812572535553
587 -2.8260355427771158 0.47814924048527974 0.36690593044198405 0.025432334144527283 -0.2561781332869309 -0.10680921348173819
571 -0.10472897860068034 0.1315028504847452 -0.14236750462781791 0.0009146192061261372 -0.016656340095952193 -0.0031935812572535553
585 1.847320225417902 0.07616656102769964 -2.2192436657175785 -0.2738576715796651 -0.12048791760915976 0.05528343659996922
554 0.010495193026219984 0.11657199994900384 -0.03149524671333487 0.0009146192061261372 -0.016656340095952193 -0.0031935812572535553
678 -0.10779171016268985 0.1547344299797484 1.3113111632591992 -0.36379754567658257 -0.2732898088861859 -0.025800028079222728
692 -0.14073826879189097 -0.09132751715147047 0.01020144796545168 -0.002841854833803937 -0.0006217682249269957 0.0027653774995484125
553 0.021204809052900717 0.10354685079925383 0.039505462610083766 0.0009146192061261372 -0.016656340095952193 -0.0031935812572535553
570 -0.12868861113598667 0.09039902400076491 0.06515042577349069 0.0009146192061261372 -0.016656340095952193 -0.0031935812572535553
584 2.291495946607292 -0.5072429526263829 -1.3320799434480883 0.25867873915385253 -0.13170972863414226 -0.10590189391475767
674 1.3570306049966558 -0.015823879966170573 -2.0306727280460497 -0.19659563261802193 -0.09515498012314762 0.0005795414603833801
675 0.7748975072613804 -0.408278278380069 0.007993201342828632 -0.16405366152081569 -0.20943282300763064 -0.12888480576724912
689 -0.0670367762113799 -0.14145180605806873 0.07467121848988119 -0.002841854833803937 -0.0006217682249269957 0.0027653774995484125
677 0.22864701370565382 1.496699163884716 0.0778792151931044 0.3355219459690414 -0.268200420529331 -0.2323536988775159
676 -0.2435393212026265 -1.0191877574682997 0.28625073409006985 -0.12930525262009393 0.176547429618096 -0.3705341394188821
690 -0.09374536132197452 -0.10770336352840375 0.05481200848912911 -0.002841854833803937 -0.0006217682249269957 0.0027653774995484125
730 -0.25509026171751026 -1.0263961959123047 -1.0802428765683487 -0.5098108255928098 0.25053511552785457 -0.10580725587491774
716 -0.1800159670381955 -0.11694921613263604 -0.035923276394211855 -0.002841854833803937 -0.0006217682249269957 0.0027653774995484125
691 -0.11921356119700272 -0.09137692134960021 0.032310319674344404 -0.002841854833803937 -0.0006217682249269957 0.0027653774995484125
715 -0.15926721286196338 -0.1164299980426394 -0.014483968136665177 -0.002841854833803937 -0.0006217682249269957 0.0027653774995484125
583 0.12054568378594249 4.510478309497223 1.071571901956248 -0.15286232866843266 0.11317061813137894 0.05395225208651631
569 -0.09408242801646102 0.056073715180040895 0.25408737421591365 0.0009146192061261372 -0.016656340095952193 -0.0031935812572535553
568 0.032485422735857514 0.044220947280173506 0.3521544328459135 0.0009146192061261372 -0.016656340095952193 -0.0031935812572535553
582 -0.48839163306503486 0.9167199033881113 0.7925597960868703 0.43812132821750577 -0.26431281785332894 0.25160946917045024
83 -0.6734509950527224 -2.6848895395330006 -2.2553056145144446 0.24039690733968147 -0.13344628057840954 -0.19167079993323305
97 -0.2491902304799674 0.1333276418894509 -0.04136983516917128 0.018463069465470747 0.011431200298507168 0.013098578907855433
84 0.35810361549721503 1.0806574192065468 -0.7730739634841587 -0.16953736933353766 -0.07171505429198213 -0.17894001604654677
98 -0.15608554646227846 0.23914174576122593 -0.26494984983689057 0.018463069465470747 0.011431200298507168 0.013098578907855433
102 0.2697837572813944 -0.3332109157394919 -0.3657376247947515 0.018463069465470747 0.011431200298507168 0.013098578907855433
88 0.513297235907839 0.6093114910331097 0.30740880064195575 -0.3163876506857673 -0.14989267890791763 0.04226074579772972
85 2.281602177624453 -0.4453532937000159 0.2500552138977646 0.254181953121188 -0.3548664971005856 -0.14929282402359345
99 -0.030058194799352594 0.23043250547603011 -0.4349907904474985 0.018463069465470747 0.011431200298507168 0.013098578907855433
101 0.2018959216556373 -0.08689107162979992 -0.4850111476315832 0.018463069465470747 0.011431200298507168 0.013098578907855433
87 -0.012776342887078684 -1.0119173728281985 1.2116226661561758 -0.11082992547173784 0.1725804525308685 0.2878459534422886
86 0.47428371026267485 -0.4762304660260873 2.0826150913816277 0.004342729558909707 0.15091697666818135 0.31530618606749783
100 0.1025434452857456 0.13390573123297922 -0.5376596685789203 0.018463069465470747 0.011431200298507168 0.013098578907855433
17 0.1391110651933117 -0.31717451645037775 0.011823911285120392 -0.007770091381226553 -0.009922198753094271 0.004600623959899391
18 0.09397087845339142 -0.22110424269355788 0.1427811422598743 -0.007770091381226553 -0.009922198753094271 0.004600623959899391
6 0.5098229722739323 0.2909590303511784 0.555908250932429 0.05859497482264436 0.17255152513643768 0.1453733731541603
1 -0.36904700080615416 -1.5914144995810113 -1.5434788802144839 -0.01597077553524759 -0.028665042264727863 -0.15054243105222317
19 0.0047693233578745 -0.11884037312509368 0.21267996630681105 -0.007770091381226553 -0.009922198753094271 0.004600623959899391
4 -1.1422176043375127 0.09734988027652058 1.3744351982991263 0.07504116014342772 0.1923378641208871 -0.3125813782884046
3 3.327672381201043 0.9354518822395569 0.9499780398855984 0.1944967909588787 -0.1592768147867607 -0.25792245551750254
5 1.2832485208836528 3.2656722537485465 -0.24195273096304734 -0.0893346873472349 0.15803156079338337 0.034255845839829324
20 -0.4004113830181213 0.16974970913891832 0.15076598191277088 -0.007770091381226553 -0.009922198753094271 0.004600623959899391
72 -1.4651875671093055 -0.38867138474675306 0.9206571006691505 0.11185593277536632 0.0382003399205504 0.1490201823628998
73 -0.1587601135356565 -0.41162294760603674 1.3204988036574843 -0.11590271088968579 -0.13602518073541386 -0.033959273448906174
74 -1.1354445222679443 -0.2763284022131905 0.5618858962987744 0.036979229854582615 0.035244091481678695 -0.24390080420244817
75 -1.4679663351858525 3.061095274612761 0.3490012978150542 -0.0028364907761367977 -0.16007438663199797 -0.018928136838697013
41 -0.12320658943226961 -0.01037130089255442 0.23047476044631818 -0.007770091381226553 -0.009922198753094271 0.004600623959899391
76 -0.13825749627661982 -1.1870739095334768 0.9950634334520221 -0.15669678706208207 -0.2697763300086603 -0.11117733744873412
2 2.801875827473414 1.3756633728271501 2.0160256010000785 -0.0867976546274837 -0.12842198833936608 -0.19684525512724194
71 0.029448832704952493 0.645128315470201 -0.2948118287053657 -0.17627865625450784 0.0512524712028265 0.06064149378278727
57 0.15545863105239174 -0.19400436416336847 0.30507561448578135 -0.007770091381226553 -0.009922198753094271 0.004600623959899391
77 2.9477760790438494 2.130902095374766 -2.6401710405251584 0.1087969256870201 -0.03306161258161623 0.2371233855323655
58 -0.2526779663462202 0.06175601900173125 0.16736531510015737 -0.007770091381226553 -0.009922198753094271 0.004600623959899391
150 3.0429756685100475 0.44515724600537804 -0.21967182759192785 0.39424484290431333 -0.1749012385023945 0.13867637044210496
96 -0.31441057032555203 -0.02359967652857453 0.1875126485998678 0.018463069465470747 0.011431200298507168 0.013098578907855433
133 -0.6099665769213902 -0.06954484617422924 0.644209482643209 0.018463069465470747 0.011431200298507168 0.013098578907855433
106 -0.15956153800924994 -0.024238486526973246 -0.030196928548399865 0.018463069465470747 0.011431200298507168 0.013098578907855433
107 -0.11244318802961728 -0.03615835180978916 -0.0862099515148243 0.018463069465470747 0.011431200298507168 0.013098578907855433
120 -0.142358372064291 -0.22245790781066105 0.11854154709736703 0.018463069465470747 0.011431200298507168 0.013098578907855433
118 -0.014650612055404355 -0.44860460004348135 0.13589082544527972 0.018463069465470747 0.011431200298507168 0.013098578907855433
90 0.23843657087876613 -0.7985041101049396 0.0845115987210559 0.018463069465470747 0.011431200298507168 0.013098578907855433
89 0.263243299600439 -0.5671199649758849 -0.15238485289382014 0.018463069465470747 0.01143120029850716 0.013098578907855436
108 -0.06246319532729604 -0.06941519751637049 -0.12763569826150245 0.018463069465470747 0.011431200298507168 0.013098578907855433
81 -0.07342192090644917 -0.8468062502759989 -1.2069981037624142 -0.07864862753664231 -0.07875776538215369 -0.2995106464360749
95 -0.33183845458343475 -0.25465111838080917 0.4137179163319503 0.018463069465470747 0.011431200298507168 0.013098578907855433
80 0.05493430357308808 0.4045552735215233 -1.1664371917850114 0.13765722982947254 0.19831003794843172 0.042210112140482106
105 -0.19858708220397198 -0.057407709371024185 0.05375838990310117 0.018463069465470747 0.011431200298507168 0.013098578907855433
104 -0.2342185699159312 -0.13758057418060188 0.17394995572122451 0.018463069465470747 0.011431200298507168 0.013098578907855433
103 -0.2456444602380261 -0.22487203650398904 0.2662350200319017 0.018463069465470747 0.011431200298507168 0.013098578907855433
94 -0.3666640394540453 -0.4772175924183314 0.6570411928124036 0.018463069465470747 0.011431200298507168 0.013098578907855433
79 0.36202746839882116 1.5774203977596608 -2.176192613580241 0.09426459599436582 0.42654331977021503 0.017770680961409213
116 -0.13580586824079838 -0.4538014892510162 0.311200269979082 0.018463069465470747 0.011431200298507168 0.013098578907855433
122 -0.15910242928975382 -0.21938265466696838 0.1394593015317091 0.018463069465470744 0.011431200298507166 0.013098578907855436
78 -1.9187461157671488 0.8051011556511982 1.0331455192291252 0.03516287529282904 0.009642645539691564 0.045060205743797904
121 -0.35783217280347057 -0.038401664547349945 0.2616352354499823 0.018463069465470747 0.011431200298507168 0.013098578907855433
132 -0.5263903930472302 -0.34150127513019357 0.7637427186033177 0.018463069465470747 0.011431200298507168 0.013098578907855433
115 -0.376812201302959 -0.6368379451084217 0.8106470499543161 0.018463069465470747 0.011431200298507168 0.013098578907855433
93 -0.18596307719048302 -0.8500481270154568 0.7277058127029312 0.018463069465470747 0.011431200298507168 0.013098578907855433
131 -0.36472717737054144 -0.814315734271201 0.9484984560344802 0.018463069465470747 0.011431200298507168 0.013098578907855433
145 0.6963216275700777 -0.8295922157970328 1.474413871080535 0.012525951582892408 0.06036314070818442 -0.3281118731428174
147 0.7579780344770832 1.5110086355389925 -2.555157569875712 -0.008684147978324334 0.14180565603690615 -0.2355259562181175
146 -0.6830638423796984 1.2507176598848324 -2.19391076001651 0.06725428500277 0.11709890426836604 -0.42493007972659036
92 -0.017874205251506542 -0.9471233104508964 0.575494594437 0.018463069465470747 0.011431200298507168 0.013098578907855433
117 -0.35127966897997787 -0.2697452459877054 0.45429395833169733 0.018463069465470747 0.011431200298507168 0.013098578907855433
130 -0.27050590799933627 -0.7108009550239252 0.7253511942193962 0.018463069465470747 0.011431200298507168 0.013098578907855433
91 0.11183314766760355 -0.8947201231566925 0.3469333727633541 0.018463069465470747 0.011431200298507168 0.013098578907855433
144 1.4541178136743174 0.33701584888526886 -0.7797668279646889 0.317309577062987 0.08769736356202115 -0.1274424828881695
114 -0.21561656640030558 -0.4507455293572051 0.4210302893022909 0.018463069465470747 0.011431200298507168 0.013098578907855433
119 -0.2301244127945839 -0.26454835678017063 0.27898451379789524 0.018463069465470747 0.011431200298507168 0.013098578907855433
113 -0.16544611859131478 -0.4121096608028386 0.31659492842947573 0.018463069465470747 0.011431200298507168 0.013098578907855433
112 -0.1177204825802976 -0.32266581730386057 0.17126525283247634 0.018463069465470747 0.011431200298507168 0.013098578907855433
143 0.02422560956654579 2.439021515058519 -1.020496424155235 0.18044328395347464 -0.388626189682358 0.12141789343885806
129 -0.149274627131603 -0.6570608080218205 0.5075706269862235 0.018463069465470747 0.011431200298507168 0.013098578907855433
148 0.23048292374159057 -1.8200006770553543 3.0648399099332932 -0.1842075854553034 -0.12953209313374003 -0.05957166937397581
111 -0.1000780734563729 -0.23283885709725707 0.06800496719112034 0.018463069465470747 0.011431200298507168 0.013098578907855433
109 -0.12890885309088201 -0.05008743808069255 -0.05084482555590214 0.018463069465470747 0.011431200298507168 0.013098578907855433
110 -0.10732483269394434 -0.14033563601190988 -0.0025084400859819167 0.018463069465470747 0.011431200298507168 0.013098578907855433
128 -0.0574494851890929 -0.49581201680720877 0.23741603773490516 0.018463069465470747 0.011431200298507168 0.013098578907855433
142 -3.0496013229708936 0.38616162589813996 -0.6343296909379402 0.08264847292237576 -0.2764865383482128 0.17325548231909785
136 -0.46002625209365117 0.4288697088908897 -0.0021075951989831254 0.018463069465470733 0.011431200298507159 0.013098578907855433
149 -1.936450695239493 -2.302286652134957 -0.547930045560071 0.4273607092778262 -0.09908564299794086 -0.17574504173413208
251 -0.3396804578707591 0.0455213907749569 0.2009968088057418 0.0022077594935185295 0.0010408829495171842 -0.0045877449621186395
252 -0.3538437977441119 0.025742899406307883 0.18969357749573976 0.0022077594935185295 0.0010408829495171842 -0.0045877449621186395
233 1.2587329917250252 1.2734088930335117 3.2600286347596006 0.03348613237888485 -0.05853704418460616 0.22347520647392125
247 -0.4596839981477161 -0.05951994707500945 0.11941540095608932 0.0022077594935185295 0.0010408829495171842 -0.0045877449621186395
268 -0.35671723483973283 0.018980827880509116 0.18677659255171947 0.0022077594935185295 0.0010408829495171842 -0.0045877449621186395
269 -0.3068828897041242 -0.03577639756354732 0.1983348606522078 0.0022077594935185295 0.0010408829495171842 -0.0045877449621186395
253 -0.3686380540338144 -0.0028666386773108163 0.17608311294866463 0.0022077594935185295 0.0010408829495171842 -0.0045877449621186395
254 -0.37668764379485287 -0.02441280529212852 0.16732094417018953 0.0022077594935185295 0.0010408829495171842 -0.0045877449621186395
286 -2.499000506887471 1.360938353618264 0.6410922758203317 0.27371132653686997 0.14219402408503287 0.28882864941376635
272 -0.3843556434954471 -0.15441902260253088 0.13413462816482072 0.0022077594935185295 0.0010408829495171842 -0.0045877449621186395
265 -0.26630728194391096 -0.008784937314950739 0.22398496434473886 0.0022077594935185295 0.0010408829495171842 -0.0045877449621186395
264 -0.3161416270795198 0.04597228812910582 0.21242669624425042 0.0022077594935185295 0.0010408829495171842 -0.0045877449621186395
255 -0.37938630136621654 -0.039803949881351504 0.16253027532724232 0.0022077594935185295 0.0010408829495171842 -0.0045877449621186395
270 -0.3272860362667352 -0.026127871092188053 0.19070534896002186 0.0022077594935185287 0.0010408829495171853 -0.004587744962118638
256 -0.38026079639151045 -0.050498862391938376 0.15968294469294683 0.0022077594935185295 0.0010408829495171842 -0.0045877449621186395
257 -0.3475351174184096 -0.08180916198146537 0.16832773026301795 0.0022077594935185295 0.0010408829495171842 -0.0045877449621186395
267 -0.2823606405666155 -0.048036311881282656 0.20735412674078751 0.0022077594935185295 0.0010408829495171842 -0.0045877449621186395
258 -0.33474494585652226 -0.07615049635618545 0.175766598713129 0.0022077594935185295 0.0010408829495171842 -0.0045877449621186395
273 -0.37463611896588894 -0.17011437584716 0.13525093846888556 0.0022077594935185295 0.0010408829495171842 -0.0045877449621186395
125 -0.07827538335322322 0.19493033474363397 -0.3360434362733478 0.018463069465470747 0.011431200298507168 0.013098578907855433
139 -2.2524236508040256 0.9534049171631158 0.024070517989032703 -0.14779918616650528 -0.2394026295387802 -0.012056687056139173
140 -0.8315204207255897 -0.9945916102066539 1.4805454041478867 -0.5310082976873778 -0.27997972802435106 0.04381089803208495
127 -0.003459894905338712 -0.2905746860228268 -0.017796578554613918 0.018463069465470747 0.011431200298507168 0.013098578907855433
141 -0.5342135073283876 -0.14823906847940055 0.2142473846775128 0.2475420494107356 0.13772395945948107 -0.07572264912279852
234 1.0470121745844176 0.3908247336414894 0.9813442944814171 0.06043253407311623 0.1191264179537708 -0.15327130158388455
248 -0.46018625692256654 -0.08742831910674853 0.11284175411564436 0.0022077594935185295 0.0010408829495171842 -0.0045877449621186395
287 -1.629271371340527 -1.804627644389082 -0.6988001521916208 -0.14177165977195771 0.048746145104150915 -0.15409589462705023
259 -0.31825355302935515 -0.06834457606474141 0.18547378138781934 0.0022077594935185295 0.0010408829495171842 -0.0045877449621186395
288 2.936584415872533 1.5625338063334804 -0.5551704327709372 -0.3284591888661543 -0.022894232009695235 -0.2390258104155159
274 -0.3405998658952529 -0.1571398421297786 0.15457390269135962 0.0022077594935185295 0.0010408829495171842 -0.0045877449621186395
137 -0.0998374013313415 0.17916311463302037 0.8280287916423925 -0.026548174156367555 0.10254641421649184 0.3621525915696535
123 -0.3420054272770773 0.4581407599386552 -0.1940085603432194 0.018463069465470747 0.011431200298507168 0.013098578907855433
249 -0.4356191167544329 -0.08677167451284694 0.12481317527134855 0.0022077594935185295 0.0010408829495171842 -0.0045877449621186395
235 0.3655761111726179 1.4963659254122526 0.13689349216441185 0.2679410727371799 0.16116038565165025 0.0825438812289862
261 -0.27073902423747687 -0.03805336795735642 0.21521175836476497 0.0022077594935185295 0.0010408829495171842 -0.0045877449621186395
260 -0.2968978184979516 -0.05696613290770006 0.1983323761035421 0.0022077594935185295 0.0010408829495171842 -0.0045877449621186395
266 -0.33219498570222433 0.006720913562774142 0.19579585864029914 0.0022077594935185295 0.0010408829495171842 -0.0045877449621186395
275 -0.29790757541802476 -0.13148466092944183 0.18093943767164247 0.0022077594935185295 0.0010408829495171842 -0.0045877449621186395
289 2.376332853276813 -1.0801229435609563 -0.2843744695926047 0.07218839459737504 0.01814889567144335 0.5033458673193042
124 -0.20885875487041106 0.3573985432973542 -0.2937668481689771 0.018463069465470747 0.011431200298507168 0.013098578907855433
138 -1.9887129592601647 -1.5421167113790188 0.20771800735635032 0.057759953142110396 -0.13400222758933622 0.13630817917479085
236 -0.19825352771541765 1.427698569481426 -1.1987919489455776 -0.3775648287416329 0.049621453522544684 0.2428920978544561
250 -0.40223824027313726 -0.07345525770466269 0.1438983203438894 0.0022077594935185295 0.0010408829495171842 -0.0045877449621186395
237 -0.3586611241540391 -0.04360263664713353 0.171641988991612 0.0022077594935185304 0.0010408829495171855 -0.004587744962118641
126 -0.01568819594899351 -0.04683085116693489 -0.2132767634023522 0.018463069465470747 0.011431200298507168 0.013098578907855433
238 -0.3125682379931325 -0.00947834217583575 0.2015654926777216 0.0022077594935185295 0.0010408829495171842 -0.0045877449621186395
16 0.1371464601779265 -0.38583834605824685 -0.13958192650707954 -0.007770091381226553 -0.009922198753094271 0.004600623959899391
15 0.0666943242701494 -0.4026542914642795 -0.29483710336388974 -0.0077700913812265545 -0.009922198753094275 0.0046006239598993925
44 -0.08890401753293262 -0.21472625431812736 -0.15232469483396688 -0.007770091381226553 -0.009922198753094271 0.004600623959899391
68 -0.7633535522046608 0.33281551264467923 0.46308991535857624 0.036370879344281154 0.09984447178868092 -0.05161682240800131
54 0.2230014706057716 -0.44511692823689464 -0.12242612262693241 -0.007770091381226553 -0.009922198753094271 0.004600623959899391
53 0.16628406774599322 -0.47555071778925817 -0.2838541198612366 -0.007770091381226553 -0.009922198753094271 0.004600623959899391
67 -0.7573269736214414 -1.6804026962115661 -0.39929797868699396 -0.1514190218736054 0.23738921938284474 0.1180013661404474
14 1.3221078792436873 -0.1298935224731838 2.595131484438434 -0.5014990599175367 0.2699699336085148 -0.2729247324028241
28 -0.012988632122585483 -0.4064219064095841 -0.4375409806494044 -0.007770091381226553 -0.009922198753094271 0.004600623959899391
161 1.2992435390430008 -0.4619979763177189 0.5528345164157031 0.23663548268676426 -0.18189601711975537 0.06641408427454876
66 1.5971863885125077 0.6244300871541614 0.5034918256928281 -0.3234929492635622 0.3188287965875176 -0.09213647506814894
52 0.07276403633195547 -0.46439756788201036 -0.4177480058490308 -0.007770091381226553 -0.009922198753094271 0.004600623959899391
65 0.5518334337077555 -1.6375071539458945 0.7807738294613569 -0.015331133695479018 -0.31841167870711096 -0.2784986765172465
51 -0.042585986923508956 -0.41768518526357024 -0.511820175346727 -0.007770091381226553 -0.009922198753094271 0.004600623959899391
175 0.3229745452303394 0.26535607923341764 0.3371360147248183 -0.006307918351240355 0.004556391849184511 -0.012103253287817355
160 0.8519094000386056 -1.6101414625284152 -1.170991040071512 -0.0341073960935095 0.2255611615854851 0.4712600699285692
174 0.4602869504472776 0.2638562145920432 0.26500752241057157 -0.006307918351240355 0.004556391849184511 -0.012103253287817355
38 0.014961293958451138 -0.3025681307267165 -0.16635357341776733 -0.007770091381226553 -0.009922198753094271 0.004600623959899391
36 -0.05896628424971151 -0.2974947941222953 -0.28026972668477806 -0.007770091381226553 -0.009922198753094271 0.004600623959899391
37 -0.01892525170313572 -0.30637090268176603 -0.23178674469175983 -0.007770091381226553 -0.009922198753094271 0.004600623959899391
35 -0.10024162648544399 -0.28213264156816126 -0.31684886280031677 -0.007770091381226553 -0.009922198753094271 0.004600623959899391
50 -0.16639762581987588 -0.31823120032820407 -0.5064351542609581 -0.007770091381226553 -0.009922198753094271 0.004600623959899391
64 -0.8598529313470689 0.7386461478544106 1.0479088484519807 -0.04015383075924493 0.0598018150335726 -0.3384938483560384
55 0.2524661421024762 -0.3921170482129338 0.04164260807445966 -0.007770091381226553 -0.009922198753094271 0.004600623959899391
69 -1.3782166153135522 0.9643331496737287 1.5183013591479777 0.002854670612630502 -0.13280873579015795 -0.22993591820778744
173 0.522946800832561 0.1783506638630046 0.20016131983434965 -0.006307918351240355 0.004556391849184511 -0.012103253287817355
159 -1.3475898768440298 -0.0986692119425358 2.827007426945927 0.3627449794613246 -0.3442642013526362 -0.09739354580036103
34 -0.18305466771445073 -0.2302432715090269 -0.3448033872578834 -0.007770091381226553 -0.009922198753094271 0.004600623959899391
27 -0.12942462457085963 -0.3583480018751608 -0.5305108624496158 -0.007770091381226553 -0.009922198753094271 0.004600623959899391
13 -3.174393314064313 0.1579789280417461 0.5669430746512412 0.11811223490525632 -0.14928425668547274 0.06795247059739065
167 -0.15544897611224842 -0.4201040320575885 0.32843022698495766 -0.006307918351240355 0.004556391849184511 -0.012103253287817355
42 -0.16412892361897297 -0.11024261419459574 -0.05403301673523653 -0.007770091381226553 -0.009922198753094271 0.004600623959899391
56 0.2004448451675239 -0.29280476430932323 0.16797025267803198 -0.007770091381226553 -0.009922198753094271 0.004600623959899391
182 0.32248142500171223 0.025042870930306382 0.24692468431143566 -0.006307918351240355 0.004556391849184511 -0.012103253287817355
172 0.5328111212564879 0.06192121884099333 0.1511892386894742 -0.006307918351240355 0.004556391849184511 -0.012103253287817355
181 0.34407905967388225 -0.00847884701309079 0.22304893854060287 -0.006307918351240355 0.004556391849184511 -0.012103253287817355
211 -0.6386946672491873 1.045076558134823 0.4051934500840731 -0.03283699003788781 -0.14820407113217823 0.10221731528617074
197 0.614090193009844 -0.010919403446043474 0.0814069953637816 -0.006307918351240355 0.004556391849184511 -0.012103253287817355
39 0.03486349596956592 -0.27719443855337483 -0.07801669809388012 -0.007770091381226553 -0.009922198753094271 0.004600623959899391
45 -0.02475880885767695 -0.24872931086795186 -0.11732312783390247 -0.007770091381226553 -0.009922198753094271 0.004600623959899391
46 -0.24696761235329598 -0.10626070125175177 -0.18535321482059963 -0.007770091381226553 -0.009922198753094271 0.004600623959899391
48 -0.12702395224780522 -0.20089561296495848 -0.18687761747612086 -0.007770091381226559 -0.009922198753094282 0.004600623959899395
31 -0.28882794130892664 -0.10039958079158962 -0.24341129160324082 -0.007770091381226553 -0.009922198753094271 0.004600623959899391
33 -0.22337184084880163 -0.1896775575726515 -0.325407549317415 -0.007770091381226553 -0.009922198753094271 0.004600623959899391
32 -0.2623072125636329 -0.14505206907109391 -0.2949222126755603 -0.007770091381226553 -0.009922198753094271 0.004600623959899391
40 0.029848987517632403 -0.24503854025565203 -0.017134950849977876 -0.007770091381226553 -0.009922198753094271 0.004600623959899391
70 -1.6975728966830284 0.4776500223883492 0.48884016663076896 -0.2486521057889835 0.12718987690465353 -0.006397321529438935
29 -0.2942483490393061 -0.031728548167705733 -0.10446262367085432 -0.007770091381226553 -0.009922198753094271 0.004600623959899391
30 -0.3030885155729597 -0.0534616151445432 -0.16626483013861745 -0.007770091381226553 -0.009922198753094271 0.004600623959899391
47 -0.18282240367804037 -0.14026375780157613 -0.15035164782053503 -0.007770091381226553 -0.009922198753094271 0.004600623959899391
43 -0.09998371494371668 -0.14424567074442068 -0.019031449735172068 -0.007770091381226553 -0.009922198753094271 0.004600623959899391
59 -0.34917962076992204 0.0911737475174891 0.06782705070268974 -0.007770091381226553 -0.009922198753094271 0.004600623959899391
152 -3.0882885927984356 -0.7512008004102385 3.0887274274064374 -0.03474348380044126 -0.2671771504933286 0.2893117542240374
191 0.17580783379731893 -0.3273842005545414 0.19069262982488988 -0.006307918351240355 0.004556391849184511 -0.012103253287817355
196 0.22223648147186195 -0.127687330480757 0.24167306109814132 -0.006307918351240359 0.004556391849184514 -0.012103253287817358
192 0.09758273293570605 -0.09074325136118555 0.3205475047057176 -0.006307918351240355 0.004556391849184511 -0.012103253287817355
158 1.7175306625652669 1.0830130054254077 -0.41860496218494725 0.1336267765847492 0.2853718260453531 0.18372034389360337
189 -0.02867853078568039 -0.5100984493024077 0.22848127781321578 -0.006307918351240355 0.004556391849184511 -0.012103253287817355
195 0.3187214254754971 -0.23652611492582196 0.15041401917332686 -0.006307918351240355 0.004556391849184511 -0.012103253287817355
153 -0.3199897077043771 1.2791896428149983 2.0987390851810486 -0.18230029457847174 0.15538753778262016 -0.2742812431542207
190 0.09807226183682925 -0.20823901005322204 0.2760599101100579 -0.006307918351240355 0.004556391849184511 -0.012103253287817355
180 0.35366342440001947 -0.04848558384879116 0.20299286320291057 -0.006307918351240355 0.004556391849184511 -0.012103253287817355
194 0.2409858535150071 -0.11738092442450362 0.2357812994584947 -0.006307918351240355 0.004556391849184511 -0.012103253287817355
168 0.106346964346134 -0.4410092222787496 0.18411864282724158 -0.006307918351240355 0.004556391849184511 -0.012103253287817355
154 -0.011535760657410798 0.145151513907439 -2.367622100329057 0.5072556140125021 -0.49627460361132814 -0.07993436456847573
206 0.1474626696112664 -0.5263367221094746 0.13056774860952589 -0.006307918351240355 0.004556391849184511 -0.012103253287817355
207 0.3098882247932059 -0.4901263040393602 0.05954731583402226 -0.006307918351240355 0.004556391849184511 -0.012103253287817355
208 0.45058732633349075 -0.3794803137520829 0.027872199466344366 -0.006307918351240355 0.004556391849184511 -0.012103253287817355
179 0.33648176644480443 -0.09997920844111442 0.19256222667446032 -0.006307918351240355 0.004556391849184511 -0.012103253287817355
178 0.29114556762425964 -0.16816421592157466 0.19052140581269908 -0.006307918351240355 0.004556391849184511 -0.012103253287817355
177 0.23982845613750053 -0.21612300627585077 0.19921205330322772 -0.006307918351240355 0.004556391849184511 -0.012103253287817355
157 0.5888663508781754 0.09555054324737933 0.6620477843112087 0.34735548825079426 0.10149700550835614 0.20378643074192723
171 0.4736275275872798 -0.0717714154872174 0.13170433267762596 -0.006307918351240355 0.004556391849184511 -0.012103253287817355
170 0.3839086823131417 -0.2007555288897472 0.12990622006218114 -0.006307918351240355 0.004556391849184511 -0.012103253287817355
156 1.8260233566066937 1.0747838351754677 -0.7339726700432896 -0.03306765923275194 0.18903638485536634 -0.22477705151950556
169 0.2428496992049644 -0.31450621328249023 0.1606001044348277 -0.006307918351240355 0.004556391849184511 -0.012103253287817355
155 -1.932194223909733 -0.680920075790658 -0.2696970469592934 -0.053615998196956186 -0.08246580540854337 0.033748078807006254
151 1.9288151493297752 0.5831724074239909 -0.29628847119270424 -0.017759956488067476 -0.015988329945792343 -0.09433345932779771
210 0.6009992828434277 -0.1358156951572529 0.04121118672422841 -0.006307918351240357 0.004556391849184518 -0.012103253287817362
209 0.5720108644307021 -0.2687816088349755 0.00626287830146377 -0.006307918351240355 0.004556391849184511 -0.012103253287817355
263 -0.2253758706215439 0.09562697446963206 0.26737170276997413 0.0022077594935185295 0.0010408829495171842 -0.0045877449621186395
295 0.37763946290394446 0.2569120580822296 -1.4771810669698113 -0.10398450623362647 -0.06195396151922335 0.23009316172501731
397 -0.19026567884503912 -0.32221669473392084 0.3280325898364102 0.008867130069137332 -0.008293523737896512 -0.0067219738368147625
241 -0.2249959318272275 0.08665286350627845 0.2655184642663247 0.0022077594935185295 0.0010408829495171842 -0.0045877449621186395
240 -0.2393320555941229 0.06455765751028927 0.25360646022399935 0.0022077594935185295 0.0010408829495171842 -0.0045877449621186395
239 -0.26902314177892384 0.024050323729340885 0.2301277857663375 0.0022077594935185295 0.0010408829495171842 -0.0045877449621186395
262 -0.2546571502139505 -0.022434338464226676 0.2264945327918138 0.0022077594935185295 0.0010408829495171842 -0.0045877449621186395
276 -0.2499473169227795 -0.09656060578968471 0.21194302891350747 0.0022077594935185295 0.0010408829495171842 -0.0045877449621186395
290 0.04902567085972859 -0.2808851496381191 0.30357652457678697 0.21532093612932673 -0.2635116843349593 0.2803892619835389
383 0.2857010106376352 0.1395313521504754 -0.783889556860353 -0.5816686727968899 0.08483211003788907 -0.33822782983004923
398 -0.22751735814365157 -0.3400427446276497 0.3008865874689738 0.008867130069137332 -0.008293523737896512 -0.0067219738368147625
384 -1.1275749133720043 1.7497276077007768 0.6585574812878466 -0.13471836912878007 0.01008121560396855 -0.09568438997654392
385 -0.21079065856682702 -0.2905761029567532 0.26191961846324013 0.008867130069137332 -0.008293523737896512 -0.006721973836814763
277 -0.2026456805600021 -0.05958034644341491 0.2430961900724784 0.0022077594935185295 0.0010408829495171842 -0.0045877449621186395
291 -0.1599179931815662 1.7344514847369528 2.8203980338423693 0.14091010070104373 -0.23315747136949794 -0.14749192148560708
294 -0.5647947340294355 -0.8576198494231992 0.36215373661616307 -0.28971121760786656 0.08168019327205729 0.044042272459004314
293 -1.4682802025125803 2.47922274839163 -0.9905728710994343 -0.24707322309253799 0.1995074559503463 0.09379410223372088
279 -0.1504945819012143 0.03398622663398897 0.28942154936713216 0.0022077594935185295 0.0010408829495171842 -0.0045877449621186395
423 -0.07788111799592909 -0.35361830973889075 0.5150250698398073 0.008867130069137332 -0.008293523737896512 -0.0067219738368147625
388 0.012447297251760026 0.029787122957573242 0.1611367167882105 0.008867130069137332 -0.008293523737896512 -0.0067219738368147625
439 0.7034607364982497 1.501443668777271 1.2238849830485572 -0.09236105127564392 0.006814086890567048 0.04426122929800956
425 0.04463424349432801 -0.16629420525987398 0.4455191073475707 0.008867130069137332 -0.008293523737896512 -0.0067219738368147625
424 -0.029009420318814608 -0.27159931920184244 0.4782985441245911 0.008867130069137332 -0.008293523737896512 -0.0067219738368147625
438 -1.30664378709007 -0.8708543816279632 0.3494108190750764 0.014503557699131468 -0.03523411784975136 -0.14144717194094333
437 0.8012454846869658 0.088723932685466 -0.2102592092151771 0.2130816943502252 -0.28611386201190153 0.3167928748482828
422 -0.08099560244465406 -0.3855175960106062 0.5502737862084438 0.008867130069137332 -0.008293523737896512 -0.0067219738368147625
436 0.08001202896494422 0.10988412669904424 -0.12335508264545177 -0.26479838377196074 0.15443238697028172 0.26727283326982737
386 -0.1807319961920529 -0.22417238405676468 0.21964234144620867 0.008867130069137332 -0.008293523737896512 -0.0067219738368147625
387 -0.08652363287552495 -0.10721183722881292 0.19960994268123786 0.008867130069137332 -0.008293523737896512 -0.0067219738368147625
278 -0.17647434071381785 -0.0167672018786715 0.26540420785490243 0.0022077594935185295 0.0010408829495171842 -0.0045877449621186395
292 0.2501117414943811 1.2616006269119335 -0.965566883471959 0.08250121689568987 -0.05273635988659985 -0.1440322114662792
544 -0.24632579096471996 0.03880750892348016 0.30053901826958657 0.0009146192061261372 -0.016656340095952193 -0.0031935812572535553
530 0.04947013542472223 0.19711814150004459 0.21673148507382622 -0.2371538317846989 -0.09958360412084068 0.10346513593199663
533 -0.3221523447506607 0.1409454386207962 -0.25388448736077374 0.0009146192061261357 -0.01665634009595219 -0.0031935812572535536
532 -1.6890915926934507 -0.2954038698015101 -0.27092421423453916 0.03757611087771145 0.15869270581934264 -0.14892087231662482
546 -0.3665458917970935 0.0991906910535825 -0.048823763179733096 0.0009146192061261372 -0.016656340095952193 -0.0031935812572535553
545 -0.32698493175575305 0.06479161877258414 0.14191691685795232 0.0009146192061261372 -0.016656340095952193 -0.0031935812572535553
531 -0.4302944686512972 -1.5883177378112878 0.404327364722048 -0.3348618881661238 -0.021218013821320294 -0.04957119057060639
21 -0.45563009309068525 0.13949929023467164 -0.007735364492754249 -0.007770091381226553 -0.009922198753094271 0.004600623959899391
7 -0.16091225520215385 -0.5064785933859374 -1.6425747464267233 -0.3561184046422373 -0.44531297528913405 0.6861683980641821
12 -1.1965329655399186 -0.8034873825851667 0.17017039686830165 -0.27418798319867266 0.0477775010500351 -0.25566960291665036
26 -0.2556705542892389 -0.2842124481975874 -0.5838416093871474 -0.007770091381226553 -0.009922198753094271 0.004600623959899391
11 1.3041538912165815 0.21678196186506432 0.9316895510738198 -0.2651832750985478 -0.10754725540726479 0.30158567812227605
25 -0.36696856397742694 -0.1753948423440404 -0.5371274660096025 -0.007770091381226553 -0.009922198753094271 0.004600623959899391
60 -0.40223149825238125 0.06341394625812505 -0.08164315321312599 -0.007770091381226553 -0.009922198753094271 0.004600623959899391
61 -0.4115582518612001 0.0029966519069737907 -0.22769771806430864 -0.007770091381226553 -0.009922198753094271 0.004600623959899391
63 0.7507744785157371 1.4487964073662265 1.073611631964057 -0.2932430561137295 0.11587394295283897 0.2957222403001548
49 -0.27654833893677677 -0.21139913155377446 -0.4620655394570129 -0.007770091381226553 -0.009922198753094271 0.004600623959899391
62 -0.35009580049819633 -0.10240187699721409 -0.3512062450422009 -0.007770091381226554 -0.009922198753094273 0.004600623959899393
10 0.785440058671601 -0.9316083638362674 -0.2123173287093549 0.09590007697897729 -0.08889734055896022 0.11662992164024383
24 -0.45404788731931167 -0.06347368886989387 -0.4428164261493226 -0.007770091381226553 -0.009922198753094271 0.004600623959899391
8 -0.45499469187377417 -0.5925495422771834 -1.971004952226953 -0.08404927591440772 -0.24924174148583278 -0.11613755481085324
22 -0.5172647250040284 0.11795080390506332 -0.15830517685811793 -0.007770091381226553 -0.009922198753094271 0.004600623959899391
23 -0.4974632616922925 0.034314660716289636 -0.3052407364994353 -0.007770091381226553 -0.009922198753094271 0.004600623959899391
9 -0.5969103321196605 4.354331531619004 0.19702830682103117 -0.33742472508191407 0.3841476621973149 -0.13652765515478588

Bonds

1 1 657 658
2 1 656 657
3 1 655 656
4 1 658 659
5 1 659 660
6 1 660 661
7 1 661 662
8 1 606 607
9 1 605 606
10 1 604 605
11 1 603 604
12 1 654 655
13 1 458 459
14 1 511 512
15 1 510 511
16 1 457 458
17 1 509 510
18 1 602 603
19 1 601 602
20 1 456 457
21 1 508 509
22 1 507 508
23 1 455 456
24 1 506 507
25 1 454 455
26 1 453 454
27 1 512 513
28 1 513 514
29 1 662 663
30 1 663 664
31 1 664 665
32 1 514 515
33 1 516 517
34 1 515 516
35 1 665 666
36 1 599 600
37 1 600 601
38 1 596 597
39 1 595 596
40 1 598 599
41 1 597 598
42 1 594 595
43 1 518 519
44 1 517 518
45 1 741 742
46 1 740 741
47 1 666 667
48 1 667 668
49 1 668 669
50 1 669 670
51 1 670 671
52 1 671 672
53 1 672 673
54 1 673 674
55 1 739 740
56 1 738 739
57 1 737 738
58 1 736 737
59 1 735 736
60 1 734 735
61 1 733 734
62 1 732 733
63 1 728 729
64 1 729 730
65 1 82 83
66 1 227 228
67 1 228 229
68 1 229 230
69 1 230 231
70 1 231 232
71 1 232 233
72 1 284 285
73 1 285 286
74 1 379 380
75 1 380 381
76 1 214 215
77 1 215 216
78 1 213 214
79 1 162 163
80 1 216 217
81 1 218 219
82 1 364 365
83 1 365 366
84 1 366 367
85 1 217 218
86 1 367 368
87 1 363 364
88 1 310 311
89 1 219 220
90 1 220 221
91 1 221 222
92 1 222 223
93 1 362 363
94 1 309 310
95 1 452 453
96 1 451 452
97 1 212 213
98 1 226 227
99 1 368 369
100 1 302 303
101 1 301 302
102 1 519 520
103 1 225 226
104 1 224 225
105 1 223 224
106 1 374 375
107 1 446 447
108 1 445 446
109 1 447 448
110 1 372 373
111 1 373 374
112 1 369 370
113 1 370 371
114 1 371 372
115 1 300 301
116 1 448 449
117 1 444 445
118 1 449 450
119 1 443 444
120 1 450 451
121 1 299 300
122 1 298 299
123 1 296 297
124 1 297 298
125 1 381 382
126 1 382 383
127 1 378 379
128 1 432 433
129 1 433 434
130 1 435 436
131 1 375 376
132 1 520 521
133 1 377 378
134 1 376 377
135 1 521 522
136 1 522 523
137 1 523 524
138 1 524 525
139 1 525 526
140 1 441 442
141 1 442 443
142 1 526 527
143 1 440 441
144 1 434 435
145 1 527 528
146 1 528 529
147 1 529 530
148 1 580 581
149 1 581 582
150 1 361 362
151 1 360 361
152 1 308 309
153 1 307 308
154 1 358 359
155 1 359 360
156 1 306 307
157 1 305 306
158 1 303 304
159 1 304 305
160 1 593 594
161 1 731 732
162 1 592 593
163 1 680 681
164 1 679 680
165 1 591 592
166 1 590 591
167 1 589 590
168 1 586 587
169 1 588 589
170 1 587 588
171 1 585 586
172 1 678 679
173 1 584 585
174 1 674 675
175 1 675 676
176 1 677 678
177 1 676 677
178 1 730 731
179 1 583 584
180 1 582 583
181 1 83 84
182 1 84 85
183 1 88 89
184 1 85 86
185 1 87 88
186 1 86 87
187 1 6 7
188 1 1 2
189 1 4 5
190 1 3 4
191 1 5 6
192 1 72 73
193 1 73 74
194 1 74 75
195 1 75 76
196 1 76 77
197 1 2 3
198 1 71 72
199 1 77 78
200 1 150 151
201 1 81 82
202 1 80 81
203 1 79 80
204 1 78 79
205 1 145 146
206 1 147 148
207 1 146 147
208 1 144 145
209 1 143 144
210 1 148 149
211 1 142 143
212 1 136 137
213 1 149 150
214 1 233 234
215 1 286 287
216 1 139 140
217 1 140 141
218 1 141 142
219 1 234 235
220 1 287 288
221 1 288 289
222 1 137 138
223 1 235 236
224 1 289 290
225 1 138 139
226 1 236 237
227 1 68 69
228 1 67 68
229 1 14 15
230 1 161 162
231 1 66 67
232 1 65 66
233 1 160 161
234 1 64 65
235 1 69 70
236 1 159 160
237 1 13 14
238 1 211 212
239 1 70 71
240 1 152 153
241 1 158 159
242 1 153 154
243 1 154 155
244 1 157 158
245 1 156 157
246 1 155 156
247 1 151 152
248 1 210 211
249 1 295 296
250 1 290 291
251 1 383 384
252 1 384 385
253 1 291 292
254 1 294 295
255 1 293 294
256 1 439 440
257 1 438 439
258 1 437 438
259 1 436 437
260 1 292 293
261 1 530 531
262 1 532 533
263 1 531 532
264 1 7 8
265 1 12 13
266 1 11 12
267 1 63 64
268 1 62 63
269 1 10 11
270 1 8 9
271 1 9 10

Angles

1 1 656 657 658
2 2 656 657 658
3 1 655 656 657
4 2 655 656 657
5 1 654 655 656
6 2 654 655 656
7 1 657 658 659
8 2 657 658 659
9 1 658 659 660
10 2 658 659 660
11 1 659 660 661
12 2 659 660 661
13 1 660 661 662
14 2 660 661 662
15 3 741 742 740
16 1 605 606 607
17 2 605 606 607
18 1 604 605 606
19 2 604 605 606
20 1 603 604 605
21 2 603 604 605
22 1 602 603 604
23 2 602 603 604
24 1 653 654 655
25 1 457 458 459
26 2 457 458 459
27 1 510 511 512
28 2 510 511 512
29 1 509 510 511
30 2 509 510 511
31 1 456 457 458
32 2 456 457 458
33 1 508 509 510
34 2 508 509 510
35 1 601 602 603
36 2 601 602 603
37 1 600 601 602
38 2 600 601 602
39 1 455 456 457
40 2 455 456 457
41 1 507 508 509
42 2 507 508 509
43 1 506 507 508
44 2 506 507 508
45 1 454 455 456
46 2 454 455 456
47 1 505 506 507
48 1 453 454 455
49 2 453 454 455
50 1 458 459 460
51 2 458 459 460
52 1 452 453 454
53 2 452 453 454
54 1 511 512 513
55 2 511 512 513
56 1 606 607 608
57 2 606 607 608
58 1 512 513 514
59 2 512 513 514
60 1 661 662 663
61 2 661 662 663
62 1 662 663 664
63 2 662 663 664
64 1 663 664 665
65 2 663 664 665
66 1 513 514 515
67 2 513 514 515
68 1 515 516 517
69 2 515 516 517
70 1 514 515 516
71 2 514 515 516
72 1 664 665 666
73 2 664 665 666
74 1 598 599 600
75 2 598 599 600
76 1 599 600 601
77 2 599 600 601
78 1 595 596 597
79 2 595 596 597
80 1 594 595 596
81 2 594 595 596
82 1 597 598 599
83 2 597 598 599
84 1 596 597 598
85 2 596 597 598
86 1 593 594 595
87 2 593 594 595
88 1 517 518 519
89 2 517 518 519
90 1 516 517 518
91 2 516 517 518
92 1 740 741 742
93 2 740 741 742
94 1 739 740 741
95 2 739 740 741
96 1 665 666 667
97 2 665 666 667
98 1 666 667 668
99 2 666 667 668
100 1 667 668 669
101 2 667 668 669
102 1 668 669 670
103 2 668 669 670
104 1 669 670 671
105 2 669 670 671
106 1 670 671 672
107 2 670 671 672
108 1 671 672 673
109 2 671 672 673
110 1 672 673 674
111 2 672 673 674
112 1 738 739 740
113 2 738 739 740
114 1 737 738 739
115 2 737 738 739
116 1 736 737 738
117 2 736 737 738
118 1 735 736 737
119 2 735 736 737
120 1 734 735 736
121 2 734 735 736
122 1 733 734 735
123 2 733 734 735
124 1 732 733 734
125 2 732 733 734
126 1 731 732 733
127 2 731 732 733
128 1 727 728 729
129 1 728 729 730
130 2 728 729 730
131 1 81 82 83
132 2 81 82 83
133 1 226 227 228
134 2 226 227 228
135 1 227 228 229
136 2 227 228 229
137 1 228 229 230
138 2 228 229 230
139 1 229 230 231
140 2 229 230 231
141 1 230 231 232
142 2 230 231 232
143 1 231 232 233
144 2 231 232 233
145 1 283 284 285
146 1 284 285 286
147 2 284 285 286
148 1 378 379 380
149 2 378 379 380
150 1 379 380 381
151 2 379 380 381
152 1 213 214 215
153 2 213 214 215
154 1 214 215 216
155 2 214 215 216
156 1 212 213 214
157 2 212 213 214
158 1 162 163 164
159 2 162 163 164
160 1 161 162 163
161 2 161 162 163
162 1 215 216 217
163 2 215 216 217
164 1 217 218 219
165 2 217 218 219
166 1 363 364 365
167 2 363 364 365
168 1 364 365 366
169 2 364 365 366
170 1 365 366 367
171 2 365 366 367
172 1 216 217 218
173 2 216 217 218
174 1 310 311 312
175 2 310 311 312
176 1 366 367 368
177 2 366 367 368
178 1 362 363 364
179 2 362 363 364
180 1 309 310 311
181 2 309 310 311
182 1 218 219 220
183 2 218 219 220
184 1 219 220 221
185 2 219 220 221
186 1 220 221 222
187 2 220 221 222
188 1 221 222 223
189 2 221 222 223
190 1 361 362 363
191 2 361 362 363
192 1 308 309 310
193 2 308 309 310
194 1 451 452 453
195 2 451 452 453
196 1 450 451 452
197 2 450 451 452
198 1 211 212 213
199 2 211 212 213
200 1 225 226 227
201 2 225 226 227
202 1 367 368 369
203 2 367 368 369
204 1 301 302 303
205 2 301 302 303
206 1 300 301 302
207 2 300 301 302
208 1 518 519 520
209 2 518 519 520
210 1 224 225 226
211 2 224 225 226
212 1 223 224 225
213 2 223 224 225
214 1 222 223 224
215 2 222 223 224
216 1 373 374 375
217 2 373 374 375
218 1 445 446 447
219 2 445 446 447
220 1 444 445 446
221 2 444 445 446
222 1 446 447 448
223 2 446 447 448
224 1 371 372 373
225 2 371 372 373
226 1 372 373 374
227 2 372 373 374
228 1 368 369 370
229 2 368 369 370
230 1 369 370 371
231 2 369 370 371
232 1 370 371 372
233 2 370 371 372
234 1 299 300 301
235 2 299 300 301
236 1 447 448 449
237 2 447 448 449
238 1 443 444 445
239 2 443 444 445
240 1 448 449 450
241 2 448 449 450
242 1 442 443 444
243 2 442 443 444
244 1 449 450 451
245 2 449 450 451
246 1 298 299 300
247 2 298 299 300
248 1 297 298 299
249 2 297 298 299
250 1 295 296 297
251 2 295 296 297
252 1 296 297 298
253 2 296 297 298
254 1 380 381 382
255 2 380 381 382
256 1 381 382 383
257 2 381 382 383
258 1 377 378 379
259 2 377 378 379
260 1 431 432 433
261 1 432 433 434
262 2 432 433 434
263 1 434 435 436
264 2 434 435 436
265 1 374 375 376
266 2 374 375 376
267 1 519 520 521
268 2 519 520 521
269 1 376 377 378
270 2 376 377 378
271 1 375 376 377
272 2 375 376 377
273 1 520 521 522
274 2 520 521 522
275 1 521 522 523
276 2 521 522 523
277 1 522 523 524
278 2 522 523 524
279 1 523 524 525
280 2 523 524 525
281 1 524 525 526
282 2 524 525 526
283 1 440 441 442
284 2 440 441 442
285 1 441 442 443
286 2 441 442 443
287 1 525 526 527
288 2 525 526 527
289 1 439 440 441
290 2 439 440 441
291 1 433 434 435
292 2 433 434 435
293 1 526 527 528
294 2 526 527 528
295 1 527 528 529
296 2 527 528 529
297 1 528 529 530
298 2 528 529 530
299 1 579 580 581
300 1 580 581 582
301 2 580 581 582
302 1 360 361 362
303 2 360 361 362
304 1 359 360 361
305 2 359 360 361
306 1 307 308 309
307 2 307 308 309
308 1 306 307 308
309 2 306 307 308
310 1 357 358 359
311 1 358 359 360
312 2 358 359 360
313 1 305 306 307
314 2 305 306 307
315 1 304 305 306
316 2 304 305 306
317 1 302 303 304
318 2 302 303 304
319 1 303 304 305
320 2 303 304 305
321 1 592 593 594
322 2 592 593 594
323 1 680 681 682
324 2 680 681 682
325 1 730 731 732
326 2 730 731 732
327 1 591 592 593
328 2 591 592 593
329 1 679 680 681
330 2 679 680 681
331 1 678 679 680
332 2 678 679 680
333 1 590 591 592
334 2 590 591 592
335 1 589 590 591
336 2 589 590 591
337 1 588 589 590
338 2 588 589 590
339 1 585 586 587
340 2 585 586 587
341 1 587 588 589
342 2 587 588 589
343 1 586 587 588
344 2 586 587 588
345 1 584 585 586
346 2 584 585 586
347 1 677 678 679
348 2 677 678 679
349 1 583 584 585
350 2 583 584 585
351 1 673 674 675
352 2 673 674 675
353 1 674 675 676
354 2 674 675 676
355 1 676 677 678
356 2 676 677 678
357 1 675 676 677
358 2 675 676 677
359 1 729 730 731
360 2 729 730 731
361 1 582 583 584
362 2 582 583 584
363 1 581 582 583
364 2 581 582 583
365 1 82 83 84
366 2 82 83 84
367 1 83 84 85
368 2 83 84 85
369 1 87 88 89
370 2 87 88 89
371 1 84 85 86
372 2 84 85 86
373 1 86 87 88
374 2 86 87 88
375 1 85 86 87
376 2 85 86 87
377 1 5 6 7
378 2 5 6 7
379 1 3 4 5
380 2 3 4 5
381 1 2 3 4
382 2 2 3 4
383 1 4 5 6
384 2 4 5 6
385 1 71 72 73
386 2 71 72 73
387 1 72 73 74
388 2 72 73 74
389 1 73 74 75
390 2 73 74 75
391 1 74 75 76
392 2 74 75 76
393 1 75 76 77
394 2 75 76 77
395 1 1 2 3
396 2 1 2 3
397 1 70 71 72
398 2 70 71 72
399 1 76 77 78
400 2 76 77 78
401 1 149 150 151
402 2 149 150 151
403 1 88 89 90
404 2 88 89 90
405 1 80 81 82
406 2 80 81 82
407 1 79 80 81
408 2 79 80 81
409 1 78 79 80
410 2 78 79 80
411 1 77 78 79
412 2 77 78 79
413 1 144 145 146
414 2 144 145 146
415 1 146 147 148
416 2 146 147 148
417 1 145 146 147
418 2 145 146 147
419 1 143 144 145
420 2 143 144 145
421 1 142 143 144
422 2 142 143 144
423 1 147 148 149
424 2 147 148 149
425 1 141 142 143
426 2 141 142 143
427 1 135 136 137
428 1 148 149 150
429 2 148 149 150
430 1 232 233 234
431 2 232 233 234
432 1 285 286 287
433 2 285 286 287
434 1 138 139 140
435 2 138 139 140
436 1 139 140 141
437 2 139 140 141
438 1 140 141 142
439 2 140 141 142
440 1 233 234 235
441 2 233 234 235
442 1 286 287 288
443 2 286 287 288
444 1 287 288 289
445 2 287 288 289
446 1 136 137 138
447 2 136 137 138
448 1 234 235 236
449 2 234 235 236
450 1 288 289 290
451 2 288 289 290
452 1 137 138 139
453 2 137 138 139
454 1 235 236 237
455 2 235 236 237
456 1 236 237 238
457 2 236 237 238
458 1 14 15 16
459 2 14 15 16
460 1 67 68 69
461 2 67 68 69
462 1 66 67 68
463 2 66 67 68
464 1 13 14 15
465 2 13 14 15
466 1 160 161 162
467 2 160 161 162
468 1 65 66 67
469 2 65 66 67
470 1 64 65 66
471 2 64 65 66
472 1 159 160 161
473 2 159 160 161
474 1 63 64 65
475 2 63 64 65
476 1 68 69 70
477 2 68 69 70
478 1 158 159 160
479 2 158 159 160
480 1 12 13 14
481 2 12 13 14
482 1 210 211 212
483 2 210 211 212
484 1 69 70 71
485 2 69 70 71
486 1 151 152 153
487 2 151 152 153
488 1 157 158 159
489 2 157 158 159
490 1 152 153 154
491 2 152 153 154
492 1 153 154 155
493 2 153 154 155
494 1 156 157 158
495 2 156 157 158
496 1 155 156 157
497 2 155 156 157
498 1 154 155 156
499 2 154 155 156
500 1 150 151 152
501 2 150 151 152
502 1 209 210 211
503 1 294 295 296
504 2 294 295 296
505 1 289 290 291
506 2 289 290 291
507 1 382 383 384
508 2 382 383 384
509 1 383 384 385
510 2 383 384 385
511 1 384 385 386
512 2 384 385 386
513 1 290 291 292
514 2 290 291 292
515 1 293 294 295
516 2 293 294 295
517 1 292 293 294
518 2 292 293 294
519 1 438 439 440
520 2 438 439 440
521 1 437 438 439
522 2 437 438 439
523 1 436 437 438
524 2 436 437 438
525 1 435 436 437
526 2 435 436 437
527 1 291 292 293
528 2 291 292 293
529 1 529 530 531
530 2 529 530 531
531 1 532 533 534
532 2 532 533 534
533 1 531 532 533
534 2 531 532 533
535 1 530 531 532
536 2 530 531 532
537 1 6 7 8
538 2 6 7 8
539 1 11 12 13
540 2 11 12 13
541 1 10 11 12
542 2 10 11 12
543 1 62 63 64
544 2 62 63 64
545 1 61 62 63
546 1 9 10 11
547 2 9 10 11
548 1 7 8 9
549 2 7 8 9
550 1 8 9 10
551 2 8 9 10

Ellipsoids

643 1 1 1 0.5762230169557612 0.5293141737139547 0.6043583356290021 -0.15014840122910497
657 1 1 1 0.41567447232586974 -0.06839117200094481 0.7530696956674303 -0.5053943154768472
642 1 1 1 0.5762230169557612 0.5293141737139547 0.6043583356290021 -0.15014840122910497
656 1 1 1 0.21563419980362775 0.05935686309326978 0.800930282838902 -0.555418163828275
655 1 1 1 -0.01618238011418995 0.19900815802731184 0.8259074990096927 -0.5272671871944724
641 1 1 1 0.5762230169557612 0.5293141737139547 0.6043583356290021 -0.15014840122910497
658 1 1 1 0.48634156722342303 -0.2340189384540648 0.7231360034439608 -0.43102359211369556
644 1 1 1 0.5762230169557612 0.5293141737139547 0.6043583356290021 -0.15014840122910497
659 1 1 1 0.6181507236071927 -0.3475901834698129 0.5794415465431486 -0.4016444215957821
645 1 1 1 0.5762230169557612 0.5293141737139547 0.6043583356290021 -0.15014840122910497
660 1 1 1 0.6664958965812903 -0.42116132342643486 0.41952171498039514 -0.4498976440813
646 1 1 1 0.5762230169557612 0.5293141737139547 0.6043583356290021 -0.15014840122910497
647 1 1 1 0.5762230169557612 0.5293141737139547 0.6043583356290021 -0.15014840122910497
661 1 1 1 0.6997942047756571 -0.45555637121992726 0.3616425181709501 -0.41469404704469975
742 1 1 1 -0.25880402696491883 -0.9246239251692017 0.19833448581427462 0.19686163762456987
460 1 1 1 0.6443889219954934 0.45745823726196216 0.5921110879997571 -0.15779524022735322
620 1 1 1 0.5762230169557612 0.5293141737139547 0.6043583356290021 -0.15014840122910497
606 1 1 1 0.5700093310407311 -0.3158280806069501 0.575403963382605 -0.494218843175994
605 1 1 1 0.40227821997047936 -0.14470610317719643 0.7320411620906637 -0.5304225810102768
619 1 1 1 0.5762230169557612 0.5293141737139547 0.6043583356290021 -0.15014840122910497
626 1 1 1 0.5762230169557612 0.5293141737139547 0.6043583356290021 -0.15014840122910497
618 1 1 1 0.5762230169557612 0.5293141737139547 0.6043583356290021 -0.15014840122910497
604 1 1 1 0.19237326714863567 0.0025902827058818653 0.7667592487361817 -0.612426380065057
625 1 1 1 0.5762230169557612 0.5293141737139547 0.6043583356290021 -0.15014840122910497
624 1 1 1 0.5762230169557612 0.5293141737139547 0.6043583356290021 -0.15014840122910497
617 1 1 1 0.5762230169557612 0.5293141737139547 0.6043583356290021 -0.15014840122910497
603 1 1 1 -0.0674242128535143 0.11565361102214003 0.7876762646821508 -0.6013687054004372
654 1 1 1 0.19533616947004195 -0.22755312774655606 -0.846025606132957 0.4407993066202503
472 1 1 1 0.6443889219954934 0.45745823726196216 0.5921110879997571 -0.15779524022735322
458 1 1 1 0.6357653204396736 -0.27505144286322203 0.5311123575301363 -0.4879229701334829
511 1 1 1 0.431405879776597 -0.5766783463833247 0.4292306293036313 -0.5450615731955272
497 1 1 1 0.6443889219954934 0.45745823726196216 0.5921110879997571 -0.15779524022735322
482 1 1 1 0.6443889219954934 0.45745823726196216 0.5921110879997571 -0.15779524022735322
510 1 1 1 0.30187046585791866 -0.5252517733933539 0.45626275133394983 -0.6517738090281276
496 1 1 1 0.6443889219954934 0.45745823726196216 0.5921110879997571 -0.15779524022735322
481 1 1 1 0.6443889219954934 0.45745823726196216 0.5921110879997571 -0.15779524022735322
489 1 1 1 0.6443889219954934 0.45745823726196216 0.5921110879997571 -0.15779524022735322
471 1 1 1 0.6443889219954934 0.45745823726196216 0.5921110879997571 -0.15779524022735322
457 1 1 1 0.44047465004634084 -0.06003090069712401 0.6498208699239433 -0.6165315974379054
480 1 1 1 0.6443889219954934 0.45745823726196216 0.5921110879997571 -0.15779524022735322
492 1 1 1 0.03696601092412998 0.4350499060812999 0.8743375420048753 0.2118937372738564
479 1 1 1 0.6443889219954934 0.45745823726196216 0.5921110879997571 -0.15779524022735322
495 1 1 1 0.6443889219954934 0.45745823726196216 0.5921110879997571 -0.15779524022735322
509 1 1 1 0.20033319929331755 -0.39457617818846563 0.626482337533428 -0.6416355115061354
602 1 1 1 -0.2234666518661106 0.11460177770066328 0.8540867649590782 -0.45548313467496737
616 1 1 1 0.5762230169557612 0.5293141737139547 0.6043583356290021 -0.15014840122910497
615 1 1 1 0.5762230169557612 0.5293141737139547 0.6043583356290021 -0.15014840122910497
601 1 1 1 -0.26792219725006106 0.10241866455847723 0.9223860263940591 -0.25871244980428715
478 1 1 1 0.6443889219954934 0.45745823726196216 0.5921110879997571 -0.15779524022735322
477 1 1 1 0.6443889219954934 0.45745823726196216 0.5921110879997571 -0.15779524022735322
470 1 1 1 0.6443889219954934 0.45745823726196216 0.5921110879997571 -0.15779524022735322
456 1 1 1 0.36410633124774316 -0.04336888753762953 0.6521779962172332 -0.663482916425986
491 1 1 1 0.6443889219954934 0.45745823726196216 0.5921110879997571 -0.15779524022735322
494 1 1 1 0.6443889219954934 0.45745823726196216 0.5921110879997571 -0.15779524022735322
508 1 1 1 0.1275616489155606 -0.12933921571736803 0.7027697640592208 -0.6878328661293429
507 1 1 1 -0.10910605674740084 -0.029159855237722306 0.8299088154673632 -0.5463487249304295
493 1 1 1 0.6443889219954934 0.45745823726196216 0.5921110879997571 -0.15779524022735322
476 1 1 1 0.6443889219954934 0.45745823726196216 0.5921110879997571 -0.15779524022735322
475 1 1 1 0.6443889219954934 0.45745823726196216 0.5921110879997571 -0.15779524022735322
455 1 1 1 0.11369527347328744 0.2455133551706883 0.7758609687123355 -0.5699441502914321
469 1 1 1 0.6443889219954934 0.45745823726196216 0.5921110879997571 -0.15779524022735322
506 1 1 1 0.12812941081073745 -0.22135443755731576 -0.8210448002537107 0.5103631090070306
505 1 1 1 0.6443889219954934 0.45745823726196216 0.5921110879997571 -0.15779524022735322
468 1 1 1 0.6443889219954934 0.45745823726196216 0.5921110879997571 -0.15779524022735322
454 1 1 1 -0.031172547209600804 0.32025499630366455 0.7249058820108726 -0.6090783790851911
504 1 1 1 0.6443889219954934 0.45745823726196216 0.5921110879997571 -0.15779524022735322
503 1 1 1 0.6443889219954934 0.45745823726196216 0.5921110879997571 -0.15779524022735322
459 1 1 1 -0.6171916668148505 0.3217353980996208 -0.537273375470549 0.47633822021171845
488 1 1 1 0.6443889219954934 0.45745823726196216 0.5921110879997571 -0.15779524022735322
486 1 1 1 0.6443889219954934 0.45745823726196216 0.5921110879997571 -0.15779524022735322
490 1 1 1 0.6443889219954934 0.45745823726196216 0.5921110879997571 -0.15779524022735322
473 1 1 1 0.6443889219954934 0.45745823726196216 0.5921110879997571 -0.15779524022735322
474 1 1 1 0.6443889219954934 0.45745823726196216 0.5921110879997571 -0.15779524022735322
467 1 1 1 0.6443889219954934 0.45745823726196216 0.5921110879997571 -0.15779524022735322
453 1 1 1 -0.13791705969285423 0.38970006042727834 0.8118722326890053 -0.4122817305402009
627 1 1 1 0.5762230169557612 0.5293141737139547 0.6043583356290021 -0.15014840122910497
512 1 1 1 0.6368235482711732 -0.5430467298187772 0.32764294402068567 -0.43841318277841834
498 1 1 1 0.6443889219954934 0.45745823726196216 0.5921110879997571 -0.15779524022735322
483 1 1 1 0.6443889219954934 0.45745823726196216 0.5921110879997571 -0.15779524022735322
623 1 1 1 0.5762230169557612 0.5293141737139547 0.6043583356290021 -0.15014840122910497
607 1 1 1 -0.602780164036857 0.2612498259175799 -0.6089553479531272 0.44449745387462014
628 1 1 1 0.5762230169557612 0.5293141737139547 0.6043583356290021 -0.15014840122910497
629 1 1 1 0.5762230169557612 0.5293141737139547 0.6043583356290021 -0.15014840122910497
499 1 1 1 0.6443889219954934 0.45745823726196216 0.5921110879997571 -0.15779524022735322
513 1 1 1 0.5988279039930348 -0.5541965452236955 0.15190915933826538 -0.5578484901571129
484 1 1 1 0.6443889219954934 0.45745823726196216 0.5921110879997571 -0.15779524022735322
638 1 1 1 0.5762230169557612 0.5293141737139547 0.6043583356290021 -0.15014840122910497
622 1 1 1 0.5762230169557612 0.5293141737139547 0.6043583356290021 -0.15014840122910497
662 1 1 1 0.7156080128064953 -0.47014371339359123 0.24943317471390974 -0.4523860653421629
608 1 1 1 0.5762230169557612 0.5293141737139547 0.6043583356290021 -0.15014840122910497
630 1 1 1 0.5762230169557612 0.5293141737139547 0.6043583356290021 -0.15014840122910497
636 1 1 1 0.5762230169557612 0.5293141737139547 0.6043583356290021 -0.15014840122910497
631 1 1 1 0.5762230169557612 0.5293141737139547 0.6043583356290021 -0.15014840122910497
609 1 1 1 0.5762230169557612 0.5293141737139547 0.6043583356290021 -0.15014840122910497
637 1 1 1 0.5762230169557612 0.5293141737139547 0.6043583356290021 -0.15014840122910497
648 1 1 1 0.5762230169557612 0.5293141737139547 0.6043583356290021 -0.15014840122910497
632 1 1 1 0.5762230169557612 0.5293141737139547 0.6043583356290021 -0.15014840122910497
649 1 1 1 0.5762230169557612 0.5293141737139547 0.6043583356290021 -0.15014840122910497
663 1 1 1 0.6269090277568553 -0.591284698652621 0.26678581591587835 -0.43150064250512143
664 1 1 1 0.692277889166538 -0.4516928816214133 0.23600066705611944 -0.5109095321216206
635 1 1 1 0.5762230169557612 0.5293141737139547 0.6043583356290021 -0.15014840122910497
640 1 1 1 -0.019894674624693243 0.48045259430471016 0.8347970801550726 0.2681106889178732
639 1 1 1 0.5762230169557612 0.5293141737139547 0.6043583356290021 -0.15014840122910497
487 1 1 1 0.6443889219954934 0.45745823726196216 0.5921110879997571 -0.15779524022735322
514 1 1 1 0.6094292054539263 -0.5401947287905307 0.10857198234350768 -0.5700858033460597
500 1 1 1 0.6443889219954934 0.45745823726196216 0.5921110879997571 -0.15779524022735322
516 1 1 1 0.6873555700748476 -0.41683980942871757 0.16075533650292592 -0.5726644875914193
501 1 1 1 0.6443889219954934 0.45745823726196216 0.5921110879997571 -0.15779524022735322
515 1 1 1 0.6563813374633928 -0.4585415157717531 0.19514966640262657 -0.5664095919442521
610 1 1 1 0.5762230169557612 0.5293141737139547 0.6043583356290021 -0.15014840122910497
611 1 1 1 0.5762230169557612 0.5293141737139547 0.6043583356290021 -0.15014840122910497
665 1 1 1 0.49215736829062534 -0.6275788778353999 0.3238119008983639 -0.5089908936009508
634 1 1 1 0.5762230169557612 0.5293141737139547 0.6043583356290021 -0.15014840122910497
633 1 1 1 0.5762230169557612 0.5293141737139547 0.6043583356290021 -0.15014840122910497
621 1 1 1 0.5762230169557612 0.5293141737139547 0.6043583356290021 -0.15014840122910497
599 1 1 1 -0.5830507897900445 0.28224872084741565 0.7618306049767969 -0.0012511698089597138
613 1 1 1 0.5762230169557612 0.5293141737139547 0.6043583356290021 -0.15014840122910497
600 1 1 1 -0.43714877042647016 0.20667502567327095 0.8631094311952269 -0.14570002079419872
614 1 1 1 0.5762230169557612 0.5293141737139547 0.6043583356290021 -0.15014840122910497
596 1 1 1 -0.5757575600011562 0.2565233000960692 0.7678827696387294 -0.1142588320493932
595 1 1 1 -0.4344784641939193 0.1601185384159156 0.8678177405153921 -0.1802300947511366
650 1 1 1 0.5762230169557612 0.5293141737139547 0.6043583356290021 -0.15014840122910497
612 1 1 1 0.5762230169557612 0.5293141737139547 0.6043583356290021 -0.15014840122910497
598 1 1 1 -0.6999904725765513 0.17225390069312713 0.6923963561734732 0.03048307654676051
597 1 1 1 -0.5955442040196983 0.2401775287123897 0.762018103724546 0.08348811505957086
651 1 1 1 0.5762230169557612 0.5293141737139547 0.6043583356290021 -0.15014840122910497
502 1 1 1 0.6443889219954934 0.45745823726196216 0.5921110879997571 -0.15779524022735322
653 1 1 1 0.5762230169557612 0.5293141737139547 0.6043583356290021 -0.15014840122910497
652 1 1 1 0.5762230169557612 0.5293141737139547 0.6043583356290021 -0.15014840122910497
594 1 1 1 0.27272821125614594 -0.1790139238147589 -0.894407038081101 0.3059565134074755
461 1 1 1 0.6443889219954934 0.45745823726196216 0.5921110879997571 -0.15779524022735322
518 1 1 1 0.7103274296391762 -0.29955581469935305 0.3106061943458363 -0.5560800739246144
517 1 1 1 0.6999271132401952 -0.4090666161786415 0.23241189477035887 -0.5373557953987795
462 1 1 1 0.6443889219954934 0.45745823726196216 0.5921110879997571 -0.15779524022735322
463 1 1 1 0.6443889219954934 0.45745823726196216 0.5921110879997571 -0.15779524022735322
485 1 1 1 0.6443889219954934 0.45745823726196216 0.5921110879997571 -0.15779524022735322
741 1 1 1 0.17320604689251742 0.17206393318238328 -0.9270168148741867 0.2846638248148042
740 1 1 1 0.13107402529652556 0.12381178722224857 -0.9427619156929491 0.2805177562229519
666 1 1 1 0.5487439518627361 -0.5471959221071225 0.44101899426824714 -0.45272391677271395
667 1 1 1 0.6578547324431632 -0.4876963818219877 0.3475886456691025 -0.4566853660473426
668 1 1 1 0.7392398569419039 -0.3596036499703283 0.2388578276070216 -0.5168719251684945
669 1 1 1 0.6478899343138164 -0.3092465543072064 0.3458555568312031 -0.6041433070662435
670 1 1 1 0.6572032171669828 -0.4014273157146899 0.2945755266743789 -0.5658315125794771
671 1 1 1 0.6979869434210004 -0.35489749548694904 0.27364030617667395 -0.5585543638236444
686 1 1 1 0.4569006833585051 -0.6392474940027747 -0.2588503849895202 0.5617836640099825
672 1 1 1 0.7506143913275712 -0.257685582409474 0.3368858265880102 -0.5066400260484193
687 1 1 1 0.4569006833585051 -0.6392474940027747 -0.2588503849895202 0.5617836640099825
673 1 1 1 0.7859195397797639 -0.26663916653846126 0.30574132638445395 -0.4666436254795664
739 1 1 1 0.05843632504580374 0.159117397340959 -0.8620327348599597 0.4776676813522547
724 1 1 1 0.4569006833585051 -0.6392474940027747 -0.2588503849895202 0.5617836640099825
707 1 1 1 0.4569006833585051 -0.6392474940027747 -0.2588503849895202 0.5617836640099825
738 1 1 1 0.030196470291322657 0.06360445560656236 -0.9614459992295626 0.265827457149193
723 1 1 1 0.4569006833585051 -0.6392474940027747 -0.2588503849895202 0.5617836640099825
737 1 1 1 0.2121778074268026 0.09395156892499626 -0.9595960226873437 0.15915135555413043
685 1 1 1 0.4569006833585051 -0.6392474940027747 -0.2588503849895202 0.5617836640099825
722 1 1 1 0.4569006833585051 -0.6392474940027747 -0.2588503849895202 0.5617836640099825
736 1 1 1 0.09768074925936489 0.030131112349852975 -0.967507496574834 0.23125706770645393
684 1 1 1 0.4569006833585051 -0.6392474940027747 -0.2588503849895202 0.5617836640099825
721 1 1 1 0.4569006833585051 -0.6392474940027747 -0.2588503849895202 0.5617836640099825
708 1 1 1 0.4569006833585051 -0.6392474940027747 -0.2588503849895202 0.5617836640099825
735 1 1 1 -0.009656736420043046 0.12719721949951127 -0.9682120111759923 0.2151583514712995
706 1 1 1 0.4569006833585051 -0.6392474940027747 -0.2588503849895202 0.5617836640099825
705 1 1 1 0.4569006833585051 -0.6392474940027747 -0.2588503849895202 0.5617836640099825
709 1 1 1 0.4569006833585051 -0.6392474940027747 -0.2588503849895202 0.5617836640099825
695 1 1 1 0.4569006833585051 -0.6392474940027747 -0.2588503849895202 0.5617836640099825
696 1 1 1 0.4569006833585051 -0.6392474940027747 -0.2588503849895202 0.5617836640099825
711 1 1 1 0.4569006833585051 -0.6392474940027747 -0.2588503849895202 0.5617836640099825
714 1 1 1 0.5061124340704048 -0.8492572762471526 0.14004270899272828 -0.054775199484585264
710 1 1 1 0.4569006833585051 -0.6392474940027747 -0.2588503849895202 0.5617836640099825
704 1 1 1 0.4569006833585051 -0.6392474940027747 -0.2588503849895202 0.5617836640099825
720 1 1 1 0.4569006833585051 -0.6392474940027747 -0.2588503849895202 0.5617836640099825
734 1 1 1 0.1754886176725018 0.18805602791900922 -0.9654058346782602 0.04278141886252863
683 1 1 1 0.4569006833585051 -0.6392474940027747 -0.2588503849895202 0.5617836640099825
682 1 1 1 0.4569006833585051 -0.6392474940027747 -0.2588503849895202 0.5617836640099825
713 1 1 1 0.4569006833585051 -0.6392474940027747 -0.2588503849895202 0.5617836640099825
703 1 1 1 0.4569006833585051 -0.6392474940027747 -0.2588503849895202 0.5617836640099825
733 1 1 1 0.39002217078912244 0.1171076704490535 -0.9056500213165475 0.11818011128897245
719 1 1 1 0.4569006833585051 -0.6392474940027747 -0.2588503849895202 0.5617836640099825
702 1 1 1 0.4569006833585051 -0.6392474940027747 -0.2588503849895202 0.5617836640099825
701 1 1 1 0.4569006833585051 -0.6392474940027747 -0.2588503849895202 0.5617836640099825
718 1 1 1 0.4569006833585051 -0.6392474940027747 -0.2588503849895202 0.5617836640099825
732 1 1 1 0.519796470395895 0.06244421350215082 -0.8466658614072176 -0.09523270809780328
725 1 1 1 0.4569006833585051 -0.6392474940027747 -0.2588503849895202 0.5617836640099825
726 1 1 1 0.4569006833585051 -0.6392474940027747 -0.2588503849895202 0.5617836640099825
727 1 1 1 0.4569006833585051 -0.6392474940027747 -0.2588503849895202 0.5617836640099825
728 1 1 1 -0.9451468470926911 0.27802162610775477 0.13526696925517706 0.10537675206450461
729 1 1 1 0.8861865802876442 -0.28353263637638165 -0.3360747758008153 -0.14606962072238497
82 1 1 1 0.7606935709725745 0.1744660630860268 0.6199928353578517 -0.08072030734076327
227 1 1 1 0.5481956328946808 0.051647872430440056 0.7057939005276819 -0.4457230253492969
228 1 1 1 0.5201472181832688 0.1424430830885533 0.6735596910535471 -0.5054445390785075
242 1 1 1 -0.9062928626068824 0.21812368689923395 0.13739754450052102 -0.3349286777308494
243 1 1 1 -0.9062928626068824 0.21812368689923395 0.13739754450052102 -0.3349286777308494
229 1 1 1 -0.5814629222080002 0.0301555580430182 -0.67983970439449 0.44588057677505943
135 1 1 1 0.8555382272892968 -0.1376255102760056 0.11458716817091623 0.4857811662245943
134 1 1 1 0.8555382272892968 -0.1376255102760056 0.11458716817091623 0.4857811662245943
281 1 1 1 -0.9062928626068824 0.21812368689923395 0.13739754450052102 -0.3349286777308494
244 1 1 1 -0.9062928626068824 0.21812368689923395 0.13739754450052102 -0.3349286777308494
230 1 1 1 -0.6460265438586072 0.020777096858734363 -0.4992452139646137 0.5770374625703717
282 1 1 1 -0.9062928626068824 0.21812368689923395 0.13739754450052102 -0.3349286777308494
231 1 1 1 -0.7368605131400621 -0.03619876786888986 -0.3137243331248004 0.5977485057991682
245 1 1 1 -0.9062928626068824 0.21812368689923395 0.13739754450052102 -0.3349286777308494
232 1 1 1 -0.7583776526752426 0.022306429294075118 -0.33943775455508474 0.5560105843574736
246 1 1 1 -0.9062928626068824 0.21812368689923395 0.13739754450052102 -0.3349286777308494
283 1 1 1 -0.9062928626068824 0.21812368689923395 0.13739754450052102 -0.3349286777308494
284 1 1 1 0.8667350524138624 0.15661357919356705 0.2836293598878338 -0.37920564597449924
271 1 1 1 -0.9062928626068824 0.21812368689923395 0.13739754450052102 -0.3349286777308494
285 1 1 1 -0.9209974939409041 -0.05853138367394435 -0.005524769763743332 0.3851066997584508
379 1 1 1 -0.9245584452878809 -0.16324966730285834 -0.3433922128644214 0.024960278773253033
380 1 1 1 -0.955670476049696 -0.07621505732975312 -0.2839796036402438 -0.015517440494484416
214 1 1 1 -0.10825848178079134 -0.04312862115659858 -0.9149133791127697 0.3864628467008205
200 1 1 1 -0.16896264712073608 -0.7863469911500471 -0.5095346026294326 0.30575238692524936
201 1 1 1 -0.16896264712073608 -0.7863469911500471 -0.5095346026294326 0.30575238692524936
215 1 1 1 -0.3103740677714243 0.21346979814989103 -0.7965640130364343 0.47284707513968566
213 1 1 1 0.09064933219586027 -0.05158460782351187 -0.8847273529410064 0.45428981692983067
199 1 1 1 -0.16896264712073608 -0.7863469911500471 -0.5095346026294326 0.30575238692524936
164 1 1 1 -0.16896264712073608 -0.7863469911500471 -0.5095346026294326 0.30575238692524936
176 1 1 1 -0.16896264712073608 -0.7863469911500471 -0.5095346026294326 0.30575238692524936
163 1 1 1 0.28793736914248275 0.03975616738108972 0.8766588568359661 -0.38338070809252967
162 1 1 1 -0.30263144077421705 -0.09233184495243747 -0.8559954871677071 0.40885298997453884
216 1 1 1 -0.4339523584120443 0.1242373657910715 -0.8001916407965193 0.39489715821881355
202 1 1 1 -0.16896264712073608 -0.7863469911500471 -0.5095346026294326 0.30575238692524936
185 1 1 1 -0.16896264712073608 -0.7863469911500471 -0.5095346026294326 0.30575238692524936
184 1 1 1 -0.16896264712073608 -0.7863469911500471 -0.5095346026294326 0.30575238692524936
218 1 1 1 -0.623881309079375 0.08485925357773513 -0.7207810973473838 0.2899062416891648
364 1 1 1 -0.5451224230156592 0.16238257936390882 -0.7124776792595535 0.4109123974785643
350 1 1 1 -0.38389851168805744 -0.7005970591656057 -0.5074165854476003 0.3229769376052996
365 1 1 1 -0.529541275738364 0.14142546817525314 -0.7129856800920101 0.4373057216919648
351 1 1 1 -0.38389851168805744 -0.7005970591656057 -0.5074165854476003 0.3229769376052996
366 1 1 1 -0.7001022218165237 0.1633243725115683 -0.5147247860402987 0.4671620949810016
352 1 1 1 -0.38389851168805744 -0.7005970591656057 -0.5074165854476003 0.3229769376052996
204 1 1 1 -0.16896264712073608 -0.7863469911500471 -0.5095346026294326 0.30575238692524936
217 1 1 1 -0.5488213092223742 0.09469379683930547 -0.733372056751223 0.3898636707364213
203 1 1 1 -0.16896264712073608 -0.7863469911500471 -0.5095346026294326 0.30575238692524936
313 1 1 1 -0.38389851168805744 -0.7005970591656057 -0.5074165854476003 0.3229769376052996
312 1 1 1 -0.38389851168805744 -0.7005970591656057 -0.5074165854476003 0.3229769376052996
311 1 1 1 0.3895104084638369 -0.081888966137966 0.763069494555534 -0.5092158534471919
335 1 1 1 -0.38389851168805744 -0.7005970591656057 -0.5074165854476003 0.3229769376052996
336 1 1 1 -0.38389851168805744 -0.7005970591656057 -0.5074165854476003 0.3229769376052996
334 1 1 1 -0.38389851168805744 -0.7005970591656057 -0.5074165854476003 0.3229769376052996
314 1 1 1 -0.38389851168805744 -0.7005970591656057 -0.5074165854476003 0.3229769376052996
340 1 1 1 -0.38389851168805744 -0.7005970591656057 -0.5074165854476003 0.3229769376052996
338 1 1 1 -0.38389851168805744 -0.7005970591656057 -0.5074165854476003 0.3229769376052996
339 1 1 1 -0.38389851168805744 -0.7005970591656057 -0.5074165854476003 0.3229769376052996
315 1 1 1 -0.38389851168805744 -0.7005970591656057 -0.5074165854476003 0.3229769376052996
367 1 1 1 0.7496851167410933 -0.056192197465029584 0.5219556304232226 -0.40296027415917895
353 1 1 1 -0.38389851168805744 -0.7005970591656057 -0.5074165854476003 0.3229769376052996
337 1 1 1 -0.38389851168805744 -0.7005970591656057 -0.5074165854476003 0.3229769376052996
363 1 1 1 -0.5110169836282101 0.14113530167381608 -0.743794330338485 0.4070779571793237
349 1 1 1 -0.38389851168805744 -0.7005970591656057 -0.5074165854476003 0.3229769376052996
310 1 1 1 -0.34620793180303744 0.10772827828599427 -0.7186710254537457 0.5933351862037681
324 1 1 1 -0.38389851168805744 -0.7005970591656057 -0.5074165854476003 0.3229769376052996
333 1 1 1 -0.38389851168805744 -0.7005970591656057 -0.5074165854476003 0.3229769376052996
341 1 1 1 -0.38389851168805744 -0.7005970591656057 -0.5074165854476003 0.3229769376052996
205 1 1 1 -0.16896264712073608 -0.7863469911500471 -0.5095346026294326 0.30575238692524936
219 1 1 1 -0.5312728881555024 0.1754437345075957 -0.8002513103041186 0.2157926196362629
187 1 1 1 -0.16896264712073608 -0.7863469911500471 -0.5095346026294326 0.30575238692524936
186 1 1 1 -0.16896264712073608 -0.7863469911500471 -0.5095346026294326 0.30575238692524936
220 1 1 1 -0.5902766435461922 0.036763979634270805 -0.7582881682475799 0.27426437570530865
165 1 1 1 -0.16896264712073608 -0.7863469911500471 -0.5095346026294326 0.30575238692524936
188 1 1 1 -0.16896264712073608 -0.7863469911500471 -0.5095346026294326 0.30575238692524936
193 1 1 1 -0.16896264712073608 -0.7863469911500471 -0.5095346026294326 0.30575238692524936
221 1 1 1 -0.5605192236241661 0.05989658754617439 -0.795761223596701 0.22134740515300177
222 1 1 1 -0.5219917772311186 0.16692940492700398 -0.8207247871608495 0.16146201415067465
166 1 1 1 -0.16896264712073608 -0.7863469911500471 -0.5095346026294326 0.30575238692524936
344 1 1 1 0.08734046755447307 -0.7237761141629241 -0.6302549493585698 -0.26701774866778105
342 1 1 1 -0.38389851168805744 -0.7005970591656057 -0.5074165854476003 0.3229769376052996
325 1 1 1 -0.38389851168805744 -0.7005970591656057 -0.5074165854476003 0.3229769376052996
362 1 1 1 -0.2206443111196111 0.08813621007845378 -0.8953355107035822 0.3767259212168901
348 1 1 1 -0.38389851168805744 -0.7005970591656057 -0.5074165854476003 0.3229769376052996
323 1 1 1 -0.38389851168805744 -0.7005970591656057 -0.5074165854476003 0.3229769376052996
309 1 1 1 -0.22617780393642206 -0.0501955284385242 -0.8146029294166243 0.5317387303151135
332 1 1 1 -0.38389851168805744 -0.7005970591656057 -0.5074165854476003 0.3229769376052996
331 1 1 1 -0.38389851168805744 -0.7005970591656057 -0.5074165854476003 0.3229769376052996
330 1 1 1 -0.38389851168805744 -0.7005970591656057 -0.5074165854476003 0.3229769376052996
452 1 1 1 -0.3533411679523883 0.31861387217519754 0.7751681581942107 -0.41563150266716353
466 1 1 1 0.6443889219954934 0.45745823726196216 0.5921110879997571 -0.15779524022735322
465 1 1 1 0.6443889219954934 0.45745823726196216 0.5921110879997571 -0.15779524022735322
451 1 1 1 -0.48047381932065997 0.40386459735781877 0.7072310033748891 -0.32536533898645736
198 1 1 1 -0.16896264712073608 -0.7863469911500471 -0.5095346026294326 0.30575238692524936
212 1 1 1 0.33605082532038716 -0.14187368414615503 -0.8865289070579692 0.28461939058835495
183 1 1 1 -0.16896264712073608 -0.7863469911500471 -0.5095346026294326 0.30575238692524936
226 1 1 1 0.5999939313838578 -0.12002994623223422 0.6930295502344956 -0.3811956673570706
354 1 1 1 -0.38389851168805744 -0.7005970591656057 -0.5074165854476003 0.3229769376052996
368 1 1 1 0.7584683911167334 -0.10155310842235413 0.5793067452461444 -0.2807425168350355
316 1 1 1 -0.38389851168805744 -0.7005970591656057 -0.5074165854476003 0.3229769376052996
302 1 1 1 0.7424044626155409 -0.4429119379928618 -0.49352983803933803 -0.09535684577838253
301 1 1 1 0.6689971335135868 -0.44567911294899537 -0.5943151320811594 -0.02454561897681225
519 1 1 1 0.6599519705168065 -0.44513203812846497 0.41324013035778656 -0.44221426922303475
225 1 1 1 -0.46553993608616945 0.02316688746545048 -0.7681536226633213 0.438948602029058
224 1 1 1 -0.5934473257983487 -0.007719623326465752 -0.6877770461370433 0.41799929871411223
223 1 1 1 -0.6621270292797753 0.131009155381445 -0.6040991389790964 0.42366098308446365
374 1 1 1 0.7499737115792015 0.0813161202835332 0.6559531661908692 0.025545337858888833
446 1 1 1 0.4218159227794003 -0.21759592582289125 -0.7958421266342117 0.3759769272566831
445 1 1 1 0.29802404430555796 -0.3898117434254952 -0.8668096596657825 0.08871013252963332
447 1 1 1 0.47985034428663176 -0.41783750072318115 -0.7676768181329277 0.07633985183841158
372 1 1 1 0.5970068028520986 -0.04706801428113936 0.7893573643251807 -0.13521253923194435
373 1 1 1 0.7216698532167202 -0.04482233002207794 0.6898380364255718 -0.036153356553177855
369 1 1 1 0.7358893002443491 -0.10570674963896341 0.5616960439923306 -0.3630297164558479
370 1 1 1 0.7702406136875882 -0.1270159382499278 0.5343591118096952 -0.3241244947278927
371 1 1 1 0.7304808743997865 -0.22963355183114323 0.5799473803091109 -0.27807761521225793
300 1 1 1 0.5936077462565884 -0.5280528908859646 -0.6030081466540486 0.07191079946710718
448 1 1 1 -0.4398922455416598 0.30860031213500283 0.8236156018270278 -0.18143318354038215
444 1 1 1 0.3517265068806374 -0.3690871841279354 -0.8596260177527447 0.03325995298575201
449 1 1 1 -0.49145462390295014 0.3847140850864791 0.7754476651350125 -0.09564697599579658
443 1 1 1 0.3306525077258344 -0.3348670502534977 -0.875053212870252 0.11320270506744959
450 1 1 1 0.47379968669461936 -0.4506466598046514 -0.6705325708589966 0.3504533011860728
464 1 1 1 0.6443889219954934 0.45745823726196216 0.5921110879997571 -0.15779524022735322
299 1 1 1 0.5357311934310602 -0.5616039438932716 -0.6268459885412182 0.06824371940507157
298 1 1 1 0.5256588077395445 -0.5074319597425652 -0.666679147034075 0.14742638497765143
296 1 1 1 0.5411567312916886 -0.5864735352157489 -0.5905630476149891 0.12013938347158704
297 1 1 1 0.6210537673433523 -0.5520219616779211 -0.49888757099217623 0.24632329042016146
280 1 1 1 -0.9062928626068824 0.21812368689923395 0.13739754450052102 -0.3349286777308494
393 1 1 1 -0.7879859659284161 0.3081367527837825 0.081611000318832 -0.5267537410504901
394 1 1 1 -0.7879859659284161 0.3081367527837825 0.081611000318832 -0.5267537410504901
395 1 1 1 -0.7879859659284161 0.3081367527837825 0.081611000318832 -0.5267537410504901
381 1 1 1 -0.9869621045335042 -0.03363175985551358 -0.10024163556021394 0.12135206402872063
382 1 1 1 -0.9557924432423759 0.23969227745334684 0.14546797620118068 0.08858603428266962
396 1 1 1 -0.7879859659284161 0.3081367527837825 0.081611000318832 -0.5267537410504901
392 1 1 1 -0.7879859659284161 0.3081367527837825 0.081611000318832 -0.5267537410504901
378 1 1 1 -0.844505086804365 -0.0923850840209683 -0.5230253001782614 -0.06870727752887702
432 1 1 1 0.9223347680135294 -0.051384661011714294 0.28649340986044514 -0.25412539903102016
433 1 1 1 -0.9642611951803621 0.007947055308882579 -0.030925515397735512 0.26302244063699504
419 1 1 1 -0.7879859659284161 0.3081367527837825 0.081611000318832 -0.5267537410504901
401 1 1 1 -0.7879859659284161 0.3081367527837825 0.081611000318832 -0.5267537410504901
402 1 1 1 -0.7879859659284161 0.3081367527837825 0.081611000318832 -0.5267537410504901
416 1 1 1 -0.7879859659284161 0.3081367527837825 0.081611000318832 -0.5267537410504901
404 1 1 1 -0.7879859659284161 0.3081367527837825 0.081611000318832 -0.5267537410504901
403 1 1 1 -0.7879859659284161 0.3081367527837825 0.081611000318832 -0.5267537410504901
420 1 1 1 -0.7879859659284161 0.3081367527837825 0.081611000318832 -0.5267537410504901
421 1 1 1 -0.7879859659284161 0.3081367527837825 0.081611000318832 -0.5267537410504901
435 1 1 1 -0.9053127926415324 0.21833456147797495 0.3535066711387275 0.08815781419832204
375 1 1 1 -0.7776873838868917 -0.267694850626713 -0.5641805045753633 0.0724027495900026
520 1 1 1 0.7630994252266533 -0.22399689314517673 0.42141499720276826 -0.43579130236002933
377 1 1 1 0.8016946084009289 0.17664631384890375 0.5709461912669977 0.010113423860625897
391 1 1 1 -0.7879859659284161 0.3081367527837825 0.081611000318832 -0.5267537410504901
431 1 1 1 -0.7879859659284161 0.3081367527837825 0.081611000318832 -0.5267537410504901
430 1 1 1 -0.7879859659284161 0.3081367527837825 0.081611000318832 -0.5267537410504901
376 1 1 1 0.7720141846321625 0.267669572065787 0.56982573100387 -0.08743989480071912
390 1 1 1 -0.7879859659284161 0.3081367527837825 0.081611000318832 -0.5267537410504901
400 1 1 1 -0.7879859659284161 0.3081367527837825 0.081611000318832 -0.5267537410504901
399 1 1 1 -0.7879859659284161 0.3081367527837825 0.081611000318832 -0.5267537410504901
429 1 1 1 -0.7879859659284161 0.3081367527837825 0.081611000318832 -0.5267537410504901
521 1 1 1 0.6789835940932434 -0.18411836817558777 0.5684195691770199 -0.426592192649129
414 1 1 1 -0.7879859659284161 0.3081367527837825 0.081611000318832 -0.5267537410504901
412 1 1 1 -0.7879859659284161 0.3081367527837825 0.081611000318832 -0.5267537410504901
418 1 1 1 -0.6148979117326785 0.5903567297383997 -0.4994825282429512 -0.1545855548859688
406 1 1 1 -0.7879859659284161 0.3081367527837825 0.081611000318832 -0.5267537410504901
405 1 1 1 -0.7879859659284161 0.3081367527837825 0.081611000318832 -0.5267537410504901
417 1 1 1 -0.7879859659284161 0.3081367527837825 0.081611000318832 -0.5267537410504901
522 1 1 1 0.6087833474671304 -0.1899024440597976 0.6839713541073565 -0.35426414487974883
523 1 1 1 -0.6846812349966213 0.25140443301247045 -0.6094871607047756 0.3106973099999592
538 1 1 1 -0.5555238301937415 0.5494673430828858 0.08311964818079265 -0.6185224628569367
524 1 1 1 -0.8217087697379585 0.16028824035109518 -0.5243627231791093 0.15539019364512355
428 1 1 1 -0.7879859659284161 0.3081367527837825 0.081611000318832 -0.5267537410504901
407 1 1 1 -0.7879859659284161 0.3081367527837825 0.081611000318832 -0.5267537410504901
413 1 1 1 -0.7879859659284161 0.3081367527837825 0.081611000318832 -0.5267537410504901
408 1 1 1 -0.7879859659284161 0.3081367527837825 0.081611000318832 -0.5267537410504901
409 1 1 1 -0.7879859659284161 0.3081367527837825 0.081611000318832 -0.5267537410504901
415 1 1 1 -0.7879859659284161 0.3081367527837825 0.081611000318832 -0.5267537410504901
410 1 1 1 -0.7879859659284161 0.3081367527837825 0.081611000318832 -0.5267537410504901
411 1 1 1 -0.7879859659284161 0.3081367527837825 0.081611000318832 -0.5267537410504901
525 1 1 1 -0.7739175879300986 0.13475393610126774 -0.6156359366254849 0.062332474144185655
539 1 1 1 -0.5555238301937415 0.5494673430828858 0.08311964818079265 -0.6185224628569367
389 1 1 1 -0.7879859659284161 0.3081367527837825 0.081611000318832 -0.5267537410504901
441 1 1 1 0.4861085604046061 -0.4145574813176602 -0.7548839800409952 0.1482927471671677
427 1 1 1 -0.7879859659284161 0.3081367527837825 0.081611000318832 -0.5267537410504901
442 1 1 1 0.30957692797953673 -0.3829098454749382 -0.8279294659080024 0.2684678293248594
526 1 1 1 -0.8414366055674378 0.3023487214499045 -0.4467301592753659 0.031652081172689965
540 1 1 1 -0.5555238301937415 0.5494673430828858 0.08311964818079265 -0.6185224628569367
577 1 1 1 -0.5555238301937415 0.5494673430828858 0.08311964818079265 -0.6185224628569367
578 1 1 1 -0.5555238301937415 0.5494673430828858 0.08311964818079265 -0.6185224628569367
576 1 1 1 -0.5555238301937415 0.5494673430828858 0.08311964818079265 -0.6185224628569367
547 1 1 1 -0.5555238301937415 0.5494673430828858 0.08311964818079265 -0.6185224628569367
548 1 1 1 -0.5555238301937415 0.5494673430828858 0.08311964818079265 -0.6185224628569367
559 1 1 1 -0.5555238301937415 0.5494673430828858 0.08311964818079265 -0.6185224628569367
560 1 1 1 -0.5555238301937415 0.5494673430828858 0.08311964818079265 -0.6185224628569367
564 1 1 1 -0.5555238301937415 0.5494673430828858 0.08311964818079265 -0.6185224628569367
565 1 1 1 -0.5555238301937415 0.5494673430828858 0.08311964818079265 -0.6185224628569367
549 1 1 1 -0.5555238301937415 0.5494673430828858 0.08311964818079265 -0.6185224628569367
541 1 1 1 -0.5555238301937415 0.5494673430828858 0.08311964818079265 -0.6185224628569367
550 1 1 1 -0.5555238301937415 0.5494673430828858 0.08311964818079265 -0.6185224628569367
551 1 1 1 -0.5555238301937415 0.5494673430828858 0.08311964818079265 -0.6185224628569367
552 1 1 1 -0.5555238301937415 0.5494673430828858 0.08311964818079265 -0.6185224628569367
426 1 1 1 -0.7879859659284161 0.3081367527837825 0.081611000318832 -0.5267537410504901
440 1 1 1 -0.45152521956441416 0.45858739441097035 0.7558682574217033 -0.12035678297022837
688 1 1 1 0.4569006833585051 -0.6392474940027747 -0.2588503849895202 0.5617836640099825
434 1 1 1 -0.9672218197844279 0.11276674627821515 0.14072847217365764 0.17877670258283812
527 1 1 1 -0.8649716944656858 0.36191410024528226 -0.3427157462756806 0.05820712217170152
579 1 1 1 -0.5555238301937415 0.5494673430828858 0.08311964818079265 -0.6185224628569367
528 1 1 1 -0.956795421773313 0.2669639230079687 -0.08412190336457519 0.07871651707325877
542 1 1 1 -0.5555238301937415 0.5494673430828858 0.08311964818079265 -0.6185224628569367
529 1 1 1 -0.9397862879207134 0.33477751316978904 0.06872329444818057 -0.001690713531699525
543 1 1 1 -0.5555238301937415 0.5494673430828858 0.08311964818079265 -0.6185224628569367
580 1 1 1 0.9315755923428409 -0.31596784076982776 0.08219114008596233 -0.15992453170701307
581 1 1 1 -0.9331148778045129 0.32173518074725843 0.08180760921953228 0.13816878577733266
567 1 1 1 -0.5555238301937415 0.5494673430828858 0.08311964818079265 -0.6185224628569367
329 1 1 1 -0.38389851168805744 -0.7005970591656057 -0.5074165854476003 0.3229769376052996
327 1 1 1 -0.38389851168805744 -0.7005970591656057 -0.5074165854476003 0.3229769376052996
326 1 1 1 -0.38389851168805744 -0.7005970591656057 -0.5074165854476003 0.3229769376052996
328 1 1 1 -0.38389851168805744 -0.7005970591656057 -0.5074165854476003 0.3229769376052996
343 1 1 1 -0.38389851168805744 -0.7005970591656057 -0.5074165854476003 0.3229769376052996
361 1 1 1 -0.11788225187219102 -0.038564469516594466 -0.8713768338519938 0.47467775365032633
347 1 1 1 -0.38389851168805744 -0.7005970591656057 -0.5074165854476003 0.3229769376052996
346 1 1 1 -0.38389851168805744 -0.7005970591656057 -0.5074165854476003 0.3229769376052996
360 1 1 1 0.12214672421193694 -0.1577035914884114 -0.7503589934167293 0.63021515055938
322 1 1 1 -0.38389851168805744 -0.7005970591656057 -0.5074165854476003 0.3229769376052996
308 1 1 1 -0.03987305323976106 0.003955863283520959 -0.8480787486016658 0.5283530324898816
321 1 1 1 -0.38389851168805744 -0.7005970591656057 -0.5074165854476003 0.3229769376052996
307 1 1 1 0.44422670162321004 -0.1992295937511218 -0.7559594438022496 0.43760201766550366
345 1 1 1 -0.38389851168805744 -0.7005970591656057 -0.5074165854476003 0.3229769376052996
358 1 1 1 -0.43515627795614087 0.38369422434510725 0.7481760321206842 -0.3219477922268043
357 1 1 1 -0.38389851168805744 -0.7005970591656057 -0.5074165854476003 0.3229769376052996
359 1 1 1 0.24373183646781085 -0.31485233993288064 -0.7915667909484364 0.46355669706996194
356 1 1 1 -0.38389851168805744 -0.7005970591656057 -0.5074165854476003 0.3229769376052996
306 1 1 1 0.3539092536881617 -0.3392097454457564 -0.8231213536933778 0.2866290736169217
320 1 1 1 -0.38389851168805744 -0.7005970591656057 -0.5074165854476003 0.3229769376052996
319 1 1 1 -0.38389851168805744 -0.7005970591656057 -0.5074165854476003 0.3229769376052996
305 1 1 1 0.5083102561402861 -0.4232488592906305 -0.7220146607715137 0.20291849655162808
317 1 1 1 -0.38389851168805744 -0.7005970591656057 -0.5074165854476003 0.3229769376052996
303 1 1 1 0.7156210243193126 -0.5140551856956512 -0.4725804294915422 0.01736528932027119
318 1 1 1 -0.38389851168805744 -0.7005970591656057 -0.5074165854476003 0.3229769376052996
304 1 1 1 0.5483426704621005 -0.5276214348986954 -0.6330953095021526 0.14186707254436337
355 1 1 1 -0.38389851168805744 -0.7005970591656057 -0.5074165854476003 0.3229769376052996
593 1 1 1 0.23477501972853473 -0.24039742944674444 -0.9165324377853779 0.21692868992841033
712 1 1 1 0.4569006833585051 -0.6392474940027747 -0.2588503849895202 0.5617836640099825
681 1 1 1 -0.3955464108879679 0.2162395650993917 0.8753129330983112 -0.17495929946734626
700 1 1 1 0.4569006833585051 -0.6392474940027747 -0.2588503849895202 0.5617836640099825
697 1 1 1 0.4569006833585051 -0.6392474940027747 -0.2588503849895202 0.5617836640099825
698 1 1 1 0.4569006833585051 -0.6392474940027747 -0.2588503849895202 0.5617836640099825
699 1 1 1 0.4569006833585051 -0.6392474940027747 -0.2588503849895202 0.5617836640099825
717 1 1 1 0.4569006833585051 -0.6392474940027747 -0.2588503849895202 0.5617836640099825
731 1 1 1 0.6447206105757399 -0.013645000386843709 -0.7635485707462434 -0.033804265628134295
562 1 1 1 -0.5555238301937415 0.5494673430828858 0.08311964818079265 -0.6185224628569367
592 1 1 1 0.28879413670059134 -0.08572136604279235 -0.8395695856540335 0.45207599455825165
694 1 1 1 0.4569006833585051 -0.6392474940027747 -0.2588503849895202 0.5617836640099825
680 1 1 1 0.43647060409105054 -0.1819116095489605 -0.8597703516535552 0.19286399480779814
679 1 1 1 0.6456022561982473 -0.1575994664904874 -0.7389698429999806 0.11083188210181391
693 1 1 1 0.4569006833585051 -0.6392474940027747 -0.2588503849895202 0.5617836640099825
591 1 1 1 0.1775654179992945 -0.3212590210300063 -0.852436856154664 0.37230977694217277
590 1 1 1 0.14258281777635234 -0.21541851246627888 -0.926271790064127 0.274382170508889
566 1 1 1 -0.4515891343191976 0.8258935121368081 -0.33404020056224043 -0.04882934346788062
561 1 1 1 -0.5555238301937415 0.5494673430828858 0.08311964818079265 -0.6185224628569367
575 1 1 1 -0.5555238301937415 0.5494673430828858 0.08311964818079265 -0.6185224628569367
589 1 1 1 0.06570292898425341 -0.1732692390558724 -0.9486988567814967 0.2561862116925313
537 1 1 1 -0.5555238301937415 0.5494673430828858 0.08311964818079265 -0.6185224628569367
563 1 1 1 -0.5555238301937415 0.5494673430828858 0.08311964818079265 -0.6185224628569367
536 1 1 1 -0.5555238301937415 0.5494673430828858 0.08311964818079265 -0.6185224628569367
558 1 1 1 -0.5555238301937415 0.5494673430828858 0.08311964818079265 -0.6185224628569367
556 1 1 1 -0.5555238301937415 0.5494673430828858 0.08311964818079265 -0.6185224628569367
555 1 1 1 -0.5555238301937415 0.5494673430828858 0.08311964818079265 -0.6185224628569367
534 1 1 1 -0.5555238301937415 0.5494673430828858 0.08311964818079265 -0.6185224628569367
557 1 1 1 -0.5555238301937415 0.5494673430828858 0.08311964818079265 -0.6185224628569367
535 1 1 1 -0.5555238301937415 0.5494673430828858 0.08311964818079265 -0.6185224628569367
586 1 1 1 -0.4505581032071328 0.3065703140642709 0.8218500947515504 -0.16605559287718252
572 1 1 1 -0.5555238301937415 0.5494673430828858 0.08311964818079265 -0.6185224628569367
574 1 1 1 -0.5555238301937415 0.5494673430828858 0.08311964818079265 -0.6185224628569367
588 1 1 1 -0.18244719324689196 0.1839308377502492 0.9475847677524755 -0.186990846097637
573 1 1 1 -0.5555238301937415 0.5494673430828858 0.08311964818079265 -0.6185224628569367
587 1 1 1 -0.17809126840097372 0.2573126682148253 0.9115321194314094 -0.26680121090501513
571 1 1 1 -0.5555238301937415 0.5494673430828858 0.08311964818079265 -0.6185224628569367
585 1 1 1 -0.3575826503192975 0.26137479292452426 0.8902629421385639 -0.10606488424109609
554 1 1 1 -0.5555238301937415 0.5494673430828858 0.08311964818079265 -0.6185224628569367
678 1 1 1 0.7667672824295795 -0.15215695185201247 -0.6234426833880803 -0.01534330891730529
692 1 1 1 0.4569006833585051 -0.6392474940027747 -0.2588503849895202 0.5617836640099825
553 1 1 1 -0.5555238301937415 0.5494673430828858 0.08311964818079265 -0.6185224628569367
570 1 1 1 -0.5555238301937415 0.5494673430828858 0.08311964818079265 -0.6185224628569367
584 1 1 1 -0.6234062003238307 0.2219910029270352 0.7423534838822723 -0.10486185667393923
674 1 1 1 0.8688533451751057 -0.3591322472594457 0.042173241376097785 -0.3381409636057759
675 1 1 1 0.9345973531211251 -0.21012001496737678 -0.07746199441553564 -0.27636390189433874
689 1 1 1 0.4569006833585051 -0.6392474940027747 -0.2588503849895202 0.5617836640099825
677 1 1 1 0.8757871093504176 -0.2183300837662903 -0.3913203495661793 -0.17943605444181965
676 1 1 1 0.9067048210908908 -0.2565878091569377 -0.18596325131785343 -0.2783284620046462
690 1 1 1 0.4569006833585051 -0.6392474940027747 -0.2588503849895202 0.5617836640099825
730 1 1 1 0.9007292511383218 -0.0906773154707168 -0.40500207613958705 -0.1282098238258142
716 1 1 1 0.4569006833585051 -0.6392474940027747 -0.2588503849895202 0.5617836640099825
691 1 1 1 0.4569006833585051 -0.6392474940027747 -0.2588503849895202 0.5617836640099825
715 1 1 1 0.4569006833585051 -0.6392474940027747 -0.2588503849895202 0.5617836640099825
583 1 1 1 -0.720443812177359 0.2740967534712667 0.6284459333601657 -0.10434266660832713
569 1 1 1 -0.5555238301937415 0.5494673430828858 0.08311964818079265 -0.6185224628569367
568 1 1 1 -0.5555238301937415 0.5494673430828858 0.08311964818079265 -0.6185224628569367
582 1 1 1 -0.9308587128465292 0.29977572282911513 0.16891918475635004 0.12289378235384567
83 1 1 1 0.8106123871241768 0.20161743942702046 0.5343281950042902 -0.12942699093772125
97 1 1 1 0.8555382272892968 -0.1376255102760056 0.11458716817091623 0.4857811662245943
84 1 1 1 0.8692114035166839 0.14167779528319366 0.4690606241045374 -0.06618964597965411
98 1 1 1 0.8555382272892968 -0.1376255102760056 0.11458716817091623 0.4857811662245943
102 1 1 1 0.8555382272892968 -0.1376255102760056 0.11458716817091623 0.4857811662245943
88 1 1 1 0.8956368984900873 -0.2965545969891579 -0.322338703552443 -0.07738008309497717
85 1 1 1 0.9398145634759901 -0.04732159748106125 0.20639101696872733 -0.2681641303472354
99 1 1 1 0.8555382272892968 -0.1376255102760056 0.11458716817091623 0.4857811662245943
101 1 1 1 0.8555382272892968 -0.1376255102760056 0.11458716817091623 0.4857811662245943
87 1 1 1 0.962246879601361 -0.15084114228819545 -0.12929054593004757 -0.18604259518654978
86 1 1 1 0.9457508563296244 -0.23124260002379143 -0.04947442934303208 -0.2227879227588439
100 1 1 1 0.8555382272892968 -0.1376255102760056 0.11458716817091623 0.4857811662245943
17 1 1 1 0.3412482327423136 0.8263083464825581 0.3926700673147413 -0.2158109784476795
18 1 1 1 0.3412482327423136 0.8263083464825581 0.3926700673147413 -0.2158109784476795
6 1 1 1 -0.7418787237469565 0.40870493111371103 0.49488136075137923 0.1940842016130813
1 1 1 1 -0.36411898510741475 0.22167494517593883 0.8923146140383948 0.14849987521577676
19 1 1 1 0.3412482327423136 0.8263083464825581 0.3926700673147413 -0.2158109784476795
4 1 1 1 -0.4969799106083845 0.397441413540787 0.6745130127673125 0.3742772860620141
3 1 1 1 -0.482820754953009 0.3076760307004943 0.7229432985418263 0.38674612578855766
5 1 1 1 -0.6399711604648138 0.24726541975803254 0.6241758727065954 0.37376624499299516
20 1 1 1 0.3412482327423136 0.8263083464825581 0.3926700673147413 -0.2158109784476795
72 1 1 1 0.6102522813466962 -0.18780335326574082 0.5530998089392709 -0.5351660069218134
73 1 1 1 0.5332457044102549 0.01968453929494196 0.6868392316097317 -0.4934707768070064
74 1 1 1 -0.4870898273116015 -0.08298562292585389 -0.7585284786452998 0.424842834000068
75 1 1 1 -0.5333883582129901 -0.041047818034212626 -0.7181223824058118 0.44509794410363446
41 1 1 1 0.3412482327423136 0.8263083464825581 0.3926700673147413 -0.2158109784476795
76 1 1 1 -0.6106089571118285 -0.08838115096627987 -0.7432626522985171 0.25866214130957493
2 1 1 1 -0.46315734198931385 0.3005852669616793 0.7505588557238209 0.36303605598000666
71 1 1 1 0.7047941355026446 -0.1523050787935443 0.4753025922156301 -0.5041387064765757
57 1 1 1 0.3412482327423136 0.8263083464825581 0.3926700673147413 -0.2158109784476795
77 1 1 1 -0.46111295758260323 -0.08510114442026008 -0.8483128328085457 0.24596335755580914
58 1 1 1 0.3412482327423136 0.8263083464825581 0.3926700673147413 -0.2158109784476795
150 1 1 1 0.5994419413708244 -0.7479240534785186 -0.2846689647918871 -0.015574005205934658
96 1 1 1 0.8555382272892968 -0.1376255102760056 0.11458716817091623 0.4857811662245943
133 1 1 1 0.8555382272892968 -0.1376255102760056 0.11458716817091623 0.4857811662245943
106 1 1 1 0.8555382272892968 -0.1376255102760056 0.11458716817091623 0.4857811662245943
107 1 1 1 0.8555382272892968 -0.1376255102760056 0.11458716817091623 0.4857811662245943
120 1 1 1 0.8555382272892968 -0.1376255102760056 0.11458716817091623 0.4857811662245943
118 1 1 1 0.8555382272892968 -0.1376255102760056 0.11458716817091623 0.4857811662245943
90 1 1 1 0.8555382272892968 -0.1376255102760056 0.11458716817091623 0.4857811662245943
89 1 1 1 -0.8572992358119039 0.27290784175632976 0.4034658530677313 0.16665723984440545
108 1 1 1 0.8555382272892968 -0.1376255102760056 0.11458716817091623 0.4857811662245943
81 1 1 1 0.5836282315906159 0.30632440880574585 0.7449379018059926 -0.10300954476700748
95 1 1 1 0.8555382272892968 -0.1376255102760056 0.11458716817091623 0.4857811662245943
80 1 1 1 0.41996046772912166 0.30931455178466316 0.8521744741136813 -0.04190917880442579
105 1 1 1 0.8555382272892968 -0.1376255102760056 0.11458716817091623 0.4857811662245943
104 1 1 1 0.8555382272892968 -0.1376255102760056 0.11458716817091623 0.4857811662245943
103 1 1 1 0.8555382272892968 -0.1376255102760056 0.11458716817091623 0.4857811662245943
94 1 1 1 0.8555382272892968 -0.1376255102760056 0.11458716817091623 0.4857811662245943
79 1 1 1 -0.4571049222718763 -0.22995316463290255 -0.8272886373501828 0.23188389901287465
116 1 1 1 0.8555382272892968 -0.1376255102760056 0.11458716817091623 0.4857811662245943
122 1 1 1 0.5239315184299617 -0.44081508839054234 0.6859822457311977 0.2461832252296976
78 1 1 1 -0.4155142302876995 -0.19416319200875037 -0.8596071932404804 0.22522000938330802
121 1 1 1 0.8555382272892968 -0.1376255102760056 0.11458716817091623 0.4857811662245943
132 1 1 1 0.8555382272892968 -0.1376255102760056 0.11458716817091623 0.4857811662245943
115 1 1 1 0.8555382272892968 -0.1376255102760056 0.11458716817091623 0.4857811662245943
93 1 1 1 0.8555382272892968 -0.1376255102760056 0.11458716817091623 0.4857811662245943
131 1 1 1 0.8555382272892968 -0.1376255102760056 0.11458716817091623 0.4857811662245943
145 1 1 1 0.485683628333701 -0.7072260634519256 -0.4037653756827951 0.3176731492314642
147 1 1 1 0.4733573497285096 -0.7014809656146533 -0.4653300738168276 0.2594709940243052
146 1 1 1 0.5093877957138413 -0.7323340693170598 -0.36838556187468335 0.2617307056835015
92 1 1 1 0.8555382272892968 -0.1376255102760056 0.11458716817091623 0.4857811662245943
117 1 1 1 0.8555382272892968 -0.1376255102760056 0.11458716817091623 0.4857811662245943
130 1 1 1 0.8555382272892968 -0.1376255102760056 0.11458716817091623 0.4857811662245943
91 1 1 1 0.8555382272892968 -0.1376255102760056 0.11458716817091623 0.4857811662245943
144 1 1 1 0.5269198567716932 -0.6312108268023308 -0.5015215094593315 0.26908090273531104
114 1 1 1 0.8555382272892968 -0.1376255102760056 0.11458716817091623 0.4857811662245943
119 1 1 1 0.8555382272892968 -0.1376255102760056 0.11458716817091623 0.4857811662245943
113 1 1 1 0.8555382272892968 -0.1376255102760056 0.11458716817091623 0.4857811662245943
112 1 1 1 0.8555382272892968 -0.1376255102760056 0.11458716817091623 0.4857811662245943
143 1 1 1 0.49927563946144715 -0.6091999321793088 -0.5310805620701451 0.3123343001726637
129 1 1 1 0.8555382272892968 -0.1376255102760056 0.11458716817091623 0.4857811662245943
148 1 1 1 -0.5173607743808631 0.7916014773400756 0.3181938455870531 0.0667653116188824
111 1 1 1 0.8555382272892968 -0.1376255102760056 0.11458716817091623 0.4857811662245943
109 1 1 1 0.8555382272892968 -0.1376255102760056 0.11458716817091623 0.4857811662245943
110 1 1 1 0.8555382272892968 -0.1376255102760056 0.11458716817091623 0.4857811662245943
128 1 1 1 0.8555382272892968 -0.1376255102760056 0.11458716817091623 0.4857811662245943
142 1 1 1 0.6640729863249055 -0.5928874547892314 -0.4290961690491564 0.15286599521936461
136 1 1 1 -0.7940698731924556 0.026129817490619787 -0.5146959714800926 0.3222705789677178
149 1 1 1 -0.5109784228676278 0.7364623955734095 0.4207802431325957 -0.1395284138061511
251 1 1 1 -0.9062928626068824 0.21812368689923395 0.13739754450052102 -0.3349286777308494
252 1 1 1 -0.9062928626068824 0.21812368689923395 0.13739754450052102 -0.3349286777308494
233 1 1 1 -0.8656681514156565 0.05021189792596182 0.0038445068756173743 0.4980789462506486
247 1 1 1 -0.9062928626068824 0.21812368689923395 0.13739754450052102 -0.3349286777308494
268 1 1 1 -0.9062928626068824 0.21812368689923395 0.13739754450052102 -0.3349286777308494
269 1 1 1 -0.9062928626068824 0.21812368689923395 0.13739754450052102 -0.3349286777308494
253 1 1 1 -0.9062928626068824 0.21812368689923395 0.13739754450052102 -0.3349286777308494
254 1 1 1 -0.9062928626068824 0.21812368689923395 0.13739754450052102 -0.3349286777308494
286 1 1 1 -0.9671190677083514 -0.03328904005072891 0.12209599923072789 0.2206017127297068
272 1 1 1 -0.9062928626068824 0.21812368689923395 0.13739754450052102 -0.3349286777308494
265 1 1 1 -0.9062928626068824 0.21812368689923395 0.13739754450052102 -0.3349286777308494
264 1 1 1 -0.9062928626068824 0.21812368689923395 0.13739754450052102 -0.3349286777308494
255 1 1 1 -0.9062928626068824 0.21812368689923395 0.13739754450052102 -0.3349286777308494
270 1 1 1 -0.7380005643249934 0.3910670773811872 -0.5436910934555956 -0.08259360109346783
256 1 1 1 -0.9062928626068824 0.21812368689923395 0.13739754450052102 -0.3349286777308494
257 1 1 1 -0.9062928626068824 0.21812368689923395 0.13739754450052102 -0.3349286777308494
267 1 1 1 -0.9062928626068824 0.21812368689923395 0.13739754450052102 -0.3349286777308494
258 1 1 1 -0.9062928626068824 0.21812368689923395 0.13739754450052102 -0.3349286777308494
273 1 1 1 -0.9062928626068824 0.21812368689923395 0.13739754450052102 -0.3349286777308494
125 1 1 1 0.8555382272892968 -0.1376255102760056 0.11458716817091623 0.4857811662245943
139 1 1 1 0.9724009086929722 -0.22864906781321612 -0.03345875323509282 -0.032196092824789434
140 1 1 1 0.9399211201535511 -0.2288131381840467 -0.22267275421984056 0.12087051009991101
127 1 1 1 0.8555382272892968 -0.1376255102760056 0.11458716817091623 0.4857811662245943
141 1 1 1 0.8582787996120771 -0.4011235621317193 -0.28579512313852184 0.1441476244322122
234 1 1 1 -0.8681943553285774 -0.0058703497017748895 0.25524653658233504 0.4255035909750912
248 1 1 1 -0.9062928626068824 0.21812368689923395 0.13739754450052102 -0.3349286777308494
287 1 1 1 -0.926575601707961 0.03133550981837333 0.28434207675071504 0.2441829714231583
259 1 1 1 -0.9062928626068824 0.21812368689923395 0.13739754450052102 -0.3349286777308494
288 1 1 1 -0.7940938335705575 0.27321278343102406 0.47370808417863997 0.2652742155560744
274 1 1 1 -0.9062928626068824 0.21812368689923395 0.13739754450052102 -0.3349286777308494
137 1 1 1 0.9335045616506662 0.022281834051082364 0.3013661881315234 -0.1930056317825798
123 1 1 1 0.8555382272892968 -0.1376255102760056 0.11458716817091623 0.4857811662245943
249 1 1 1 -0.9062928626068824 0.21812368689923395 0.13739754450052102 -0.3349286777308494
235 1 1 1 -0.7879110192039487 0.016661256893938714 0.3954414771291865 0.4717464006238904
261 1 1 1 -0.9062928626068824 0.21812368689923395 0.13739754450052102 -0.3349286777308494
260 1 1 1 -0.9062928626068824 0.21812368689923395 0.13739754450052102 -0.3349286777308494
266 1 1 1 -0.9062928626068824 0.21812368689923395 0.13739754450052102 -0.3349286777308494
275 1 1 1 -0.9062928626068824 0.21812368689923395 0.13739754450052102 -0.3349286777308494
289 1 1 1 -0.6235754936301627 0.49810392364908923 0.592821475448234 0.10774406357967185
124 1 1 1 0.8555382272892968 -0.1376255102760056 0.11458716817091623 0.4857811662245943
138 1 1 1 0.9864775264082957 0.01948687182973751 0.10217782961099867 -0.12665718634821932
236 1 1 1 -0.7046734429215049 0.15097329580927477 0.6198663103228151 0.3104966346362188
250 1 1 1 -0.9062928626068824 0.21812368689923395 0.13739754450052102 -0.3349286777308494
237 1 1 1 0.6964641605992228 -0.2202641278822288 -0.5881916053257633 -0.3470619863848574
126 1 1 1 0.8555382272892968 -0.1376255102760056 0.11458716817091623 0.4857811662245943
238 1 1 1 -0.9062928626068824 0.21812368689923395 0.13739754450052102 -0.3349286777308494
16 1 1 1 0.3412482327423136 0.8263083464825581 0.3926700673147413 -0.2158109784476795
15 1 1 1 -0.4349846631083819 -0.11647898037547802 -0.7513271353269195 0.48241944997338276
44 1 1 1 0.3412482327423136 0.8263083464825581 0.3926700673147413 -0.2158109784476795
68 1 1 1 0.6941731189285228 -0.0012353431597809776 0.5753126085574326 -0.4325939866886353
54 1 1 1 0.3412482327423136 0.8263083464825581 0.3926700673147413 -0.2158109784476795
53 1 1 1 0.3412482327423136 0.8263083464825581 0.3926700673147413 -0.2158109784476795
67 1 1 1 0.5061017977582304 0.21271983202580083 0.6863506743271746 -0.4770052360503344
14 1 1 1 0.35479560639686064 0.12387465906944373 0.7382324928068722 -0.5601677722665458
28 1 1 1 0.3412482327423136 0.8263083464825581 0.3926700673147413 -0.2158109784476795
161 1 1 1 -0.06897372429194452 -0.27240176695927065 -0.8843725246212838 0.37272662959566366
66 1 1 1 0.41999532798727796 0.16428952981428047 0.7572943284383387 -0.4723538662670048
52 1 1 1 0.3412482327423136 0.8263083464825581 0.3926700673147413 -0.2158109784476795
65 1 1 1 0.1307329128124194 0.17471599526274553 0.8272031739430776 -0.5178012509886658
51 1 1 1 0.3412482327423136 0.8263083464825581 0.3926700673147413 -0.2158109784476795
175 1 1 1 -0.16896264712073608 -0.7863469911500471 -0.5095346026294326 0.30575238692524936
160 1 1 1 0.017490385624459308 -0.34519872979767535 -0.830108967207672 0.437551169485572
174 1 1 1 -0.16896264712073608 -0.7863469911500471 -0.5095346026294326 0.30575238692524936
38 1 1 1 0.3412482327423136 0.8263083464825581 0.3926700673147413 -0.2158109784476795
36 1 1 1 0.3412482327423136 0.8263083464825581 0.3926700673147413 -0.2158109784476795
37 1 1 1 0.3412482327423136 0.8263083464825581 0.3926700673147413 -0.2158109784476795
35 1 1 1 0.3412482327423136 0.8263083464825581 0.3926700673147413 -0.2158109784476795
50 1 1 1 0.3412482327423136 0.8263083464825581 0.3926700673147413 -0.2158109784476795
64 1 1 1 -0.05479884946066013 0.36349957347705697 0.8466211341275722 -0.38483477159467927
55 1 1 1 0.3412482327423136 0.8263083464825581 0.3926700673147413 -0.2158109784476795
69 1 1 1 0.7402300315926723 -0.09106968261756934 0.5118372821840271 -0.42636652049934154
173 1 1 1 -0.16896264712073608 -0.7863469911500471 -0.5095346026294326 0.30575238692524936
159 1 1 1 0.43667032165104475 -0.37224752603133904 -0.6814315630775795 0.45431468652726553
34 1 1 1 0.3412482327423136 0.8263083464825581 0.3926700673147413 -0.2158109784476795
27 1 1 1 0.3412482327423136 0.8263083464825581 0.3926700673147413 -0.2158109784476795
13 1 1 1 0.19756104766263147 0.08149746575063939 0.861194843571098 -0.46116291799018144
167 1 1 1 -0.16896264712073608 -0.7863469911500471 -0.5095346026294326 0.30575238692524936
42 1 1 1 0.3412482327423136 0.8263083464825581 0.3926700673147413 -0.2158109784476795
56 1 1 1 0.3412482327423136 0.8263083464825581 0.3926700673147413 -0.2158109784476795
182 1 1 1 -0.16896264712073608 -0.7863469911500471 -0.5095346026294326 0.30575238692524936
172 1 1 1 -0.16896264712073608 -0.7863469911500471 -0.5095346026294326 0.30575238692524936
181 1 1 1 -0.16896264712073608 -0.7863469911500471 -0.5095346026294326 0.30575238692524936
211 1 1 1 0.4707108191553497 -0.2449455649315723 -0.8204177427547135 0.21295004654546
197 1 1 1 -0.16896264712073608 -0.7863469911500471 -0.5095346026294326 0.30575238692524936
39 1 1 1 0.3412482327423136 0.8263083464825581 0.3926700673147413 -0.2158109784476795
45 1 1 1 0.3412482327423136 0.8263083464825581 0.3926700673147413 -0.2158109784476795
46 1 1 1 0.3412482327423136 0.8263083464825581 0.3926700673147413 -0.2158109784476795
48 1 1 1 -0.036360727927216646 0.7368896414637183 0.5189586068072469 0.4316868288340022
31 1 1 1 0.3412482327423136 0.8263083464825581 0.3926700673147413 -0.2158109784476795
33 1 1 1 0.3412482327423136 0.8263083464825581 0.3926700673147413 -0.2158109784476795
32 1 1 1 0.3412482327423136 0.8263083464825581 0.3926700673147413 -0.2158109784476795
40 1 1 1 0.3412482327423136 0.8263083464825581 0.3926700673147413 -0.2158109784476795
70 1 1 1 0.6932674886693098 -0.018980651687808558 0.4999331613861567 -0.5187357305623913
29 1 1 1 0.3412482327423136 0.8263083464825581 0.3926700673147413 -0.2158109784476795
30 1 1 1 0.3412482327423136 0.8263083464825581 0.3926700673147413 -0.2158109784476795
47 1 1 1 0.3412482327423136 0.8263083464825581 0.3926700673147413 -0.2158109784476795
43 1 1 1 0.3412482327423136 0.8263083464825581 0.3926700673147413 -0.2158109784476795
59 1 1 1 0.3412482327423136 0.8263083464825581 0.3926700673147413 -0.2158109784476795
152 1 1 1 -0.6797991626667098 0.6735530156985037 0.27492720635356477 -0.09281414055905605
191 1 1 1 -0.16896264712073608 -0.7863469911500471 -0.5095346026294326 0.30575238692524936
196 1 1 1 0.24082073922216254 -0.7722308759666532 -0.479770006314767 -0.3398317036490198
192 1 1 1 -0.16896264712073608 -0.7863469911500471 -0.5095346026294326 0.30575238692524936
158 1 1 1 0.45538677622982376 -0.6037816297403675 -0.5380175361332808 0.3723006291105992
189 1 1 1 -0.16896264712073608 -0.7863469911500471 -0.5095346026294326 0.30575238692524936
195 1 1 1 -0.16896264712073608 -0.7863469911500471 -0.5095346026294326 0.30575238692524936
153 1 1 1 -0.6599755839216096 0.6489367870510219 0.35920837997054694 -0.1195098941433826
190 1 1 1 -0.16896264712073608 -0.7863469911500471 -0.5095346026294326 0.30575238692524936
180 1 1 1 -0.16896264712073608 -0.7863469911500471 -0.5095346026294326 0.30575238692524936
194 1 1 1 -0.16896264712073608 -0.7863469911500471 -0.5095346026294326 0.30575238692524936
168 1 1 1 -0.16896264712073608 -0.7863469911500471 -0.5095346026294326 0.30575238692524936
154 1 1 1 -0.8033817112552724 0.5485246411531278 0.22097987092751561 -0.06975987896521414
206 1 1 1 -0.16896264712073608 -0.7863469911500471 -0.5095346026294326 0.30575238692524936
207 1 1 1 -0.16896264712073608 -0.7863469911500471 -0.5095346026294326 0.30575238692524936
208 1 1 1 -0.16896264712073608 -0.7863469911500471 -0.5095346026294326 0.30575238692524936
179 1 1 1 -0.16896264712073608 -0.7863469911500471 -0.5095346026294326 0.30575238692524936
178 1 1 1 -0.16896264712073608 -0.7863469911500471 -0.5095346026294326 0.30575238692524936
177 1 1 1 -0.16896264712073608 -0.7863469911500471 -0.5095346026294326 0.30575238692524936
157 1 1 1 0.5725905087852142 -0.6220791939904786 -0.44857680211599665 0.28971785974743103
171 1 1 1 -0.16896264712073608 -0.7863469911500471 -0.5095346026294326 0.30575238692524936
170 1 1 1 -0.16896264712073608 -0.7863469911500471 -0.5095346026294326 0.30575238692524936
156 1 1 1 0.7134261627781137 -0.5345425869337921 -0.3860930883833538 0.23710643205199988
169 1 1 1 -0.16896264712073608 -0.7863469911500471 -0.5095346026294326 0.30575238692524936
155 1 1 1 -0.8621528262183863 0.46595335932743054 0.19682210173132905 -0.02900054215344728
151 1 1 1 -0.6365102014611252 0.7064170705298045 0.30921851838103614 0.01461484827986826
210 1 1 1 -0.5836717026398983 0.34527131704529895 0.7194091139959018 -0.15021846711665846
209 1 1 1 -0.16896264712073608 -0.7863469911500471 -0.5095346026294326 0.30575238692524936
263 1 1 1 -0.9062928626068824 0.21812368689923395 0.13739754450052102 -0.3349286777308494
295 1 1 1 -0.4853138110169191 0.6364228007655901 0.5937796477568711 -0.08283871927814035
397 1 1 1 -0.7879859659284161 0.3081367527837825 0.081611000318832 -0.5267537410504901
241 1 1 1 -0.9062928626068824 0.21812368689923395 0.13739754450052102 -0.3349286777308494
240 1 1 1 -0.9062928626068824 0.21812368689923395 0.13739754450052102 -0.3349286777308494
239 1 1 1 -0.9062928626068824 0.21812368689923395 0.13739754450052102 -0.3349286777308494
262 1 1 1 -0.9062928626068824 0.21812368689923395 0.13739754450052102 -0.3349286777308494
276 1 1 1 -0.9062928626068824 0.21812368689923395 0.13739754450052102 -0.3349286777308494
290 1 1 1 -0.6183355602892355 0.5896518285503753 0.497250858769926 0.15070978542074595
383 1 1 1 -0.8921147623766892 0.23339294769628244 0.3867889565525512 -0.007299712611640416
398 1 1 1 -0.7879859659284161 0.3081367527837825 0.081611000318832 -0.5267537410504901
384 1 1 1 -0.7541048043160353 0.2612512322321508 0.5939193437961463 0.10165407433749062
385 1 1 1 0.7339259564341412 -0.22442547414384284 -0.6324367936496659 -0.10492663658801082
277 1 1 1 -0.9062928626068824 0.21812368689923395 0.13739754450052102 -0.3349286777308494
291 1 1 1 -0.5460070063131667 0.5229121910654201 0.6521061172247862 0.056540263265293766
294 1 1 1 -0.34263940922634784 0.6291520426263205 0.6956124803001184 -0.05375146281605394
293 1 1 1 -0.45812727101845196 0.6692561900286568 0.5688079664926526 0.13664937947903674
279 1 1 1 -0.9062928626068824 0.21812368689923395 0.13739754450052102 -0.3349286777308494
423 1 1 1 -0.7879859659284161 0.3081367527837825 0.081611000318832 -0.5267537410504901
388 1 1 1 -0.7879859659284161 0.3081367527837825 0.081611000318832 -0.5267537410504901
439 1 1 1 -0.4356030932940307 0.45043804915181557 0.7721713046396439 -0.10538968298694408
425 1 1 1 -0.7879859659284161 0.3081367527837825 0.081611000318832 -0.5267537410504901
424 1 1 1 -0.7879859659284161 0.3081367527837825 0.081611000318832 -0.5267537410504901
438 1 1 1 -0.4749903907056508 0.4502520826454768 0.7530396140822775 -0.06773869229265135
437 1 1 1 -0.6439055186656866 0.3324120891049046 0.6685179851893405 0.16724709123680137
422 1 1 1 -0.7879859659284161 0.3081367527837825 0.081611000318832 -0.5267537410504901
436 1 1 1 -0.865993187151575 0.03318944897155422 0.4983040571691435 0.025442619613413462
386 1 1 1 -0.7879859659284161 0.3081367527837825 0.081611000318832 -0.5267537410504901
387 1 1 1 -0.7879859659284161 0.3081367527837825 0.081611000318832 -0.5267537410504901
278 1 1 1 -0.9062928626068824 0.21812368689923395 0.13739754450052102 -0.3349286777308494
292 1 1 1 -0.388230240517834 0.6012367535394628 0.692131368529928 0.0935190634987394
544 1 1 1 -0.5555238301937415 0.5494673430828858 0.08311964818079265 -0.6185224628569367
530 1 1 1 -0.85572366830732 0.38859326097676594 0.3303440457466084 -0.08720718125171538
533 1 1 1 0.5725315492885643 -0.2844328618893045 -0.7491746742823819 0.1733288191864905
532 1 1 1 -0.5799447581486641 0.23978106470219926 0.7734275619123971 -0.08932482846561923
546 1 1 1 -0.5555238301937415 0.5494673430828858 0.08311964818079265 -0.6185224628569367
545 1 1 1 -0.5555238301937415 0.5494673430828858 0.08311964818079265 -0.6185224628569367
531 1 1 1 -0.7695619235287866 0.35595601150645034 0.5271199807547426 -0.0566947053631415
21 1 1 1 0.3412482327423136 0.8263083464825581 0.3926700673147413 -0.2158109784476795
7 1 1 1 -0.7232980171755454 0.5024801377085151 0.43246373141980404 0.1932066524859229
12 1 1 1 -0.045213635145524046 0.19895980418785447 0.9138592579659687 -0.3510441284857891
26 1 1 1 0.3412482327423136 0.8263083464825581 0.3926700673147413 -0.2158109784476795
11 1 1 1 -0.34661618023850016 0.30943609900897845 0.8419033025142365 -0.27441820902155795
25 1 1 1 0.3412482327423136 0.8263083464825581 0.3926700673147413 -0.2158109784476795
60 1 1 1 0.3412482327423136 0.8263083464825581 0.3926700673147413 -0.2158109784476795
61 1 1 1 0.3412482327423136 0.8263083464825581 0.3926700673147413 -0.2158109784476795
63 1 1 1 -0.20090120799668695 0.3791420229217804 0.8200897664352435 -0.3786063999306401
49 1 1 1 0.3412482327423136 0.8263083464825581 0.3926700673147413 -0.2158109784476795
62 1 1 1 0.39687624184801573 -0.4659000057267727 -0.778365390299841 0.13990622753746357
10 1 1 1 -0.35992483120462854 0.4551968590265762 0.8104096243110542 -0.08053680052420206
24 1 1 1 0.3412482327423136 0.8263083464825581 0.3926700673147413 -0.2158109784476795
8 1 1 1 -0.6852190745245851 0.44083720458292475 0.5797122590701719 -0.008430637398314941
22 1 1 1 0.3412482327423136 0.8263083464825581 0.3926700673147413 -0.2158109784476795
23 1 1 1 0.3412482327423136 0.8263083464825581 0.3926700673147413 -0.2158109784476795
9 1 1 1 -0.5379664772369948 0.447961359951332 0.7091126187763929 -0.08415452009165904
